%mem=800MB
%nprocshared=4
#p B3LYP/6-31G(d)

ColabReaction trial product: enamine2 + Et3NH+ product-like complex

1 1
C   3.45359168 -0.53081327  1.71174340
N   2.71328368 -0.20754727  0.48503240
C   3.48601668  0.53402673 -0.51549760
C   1.36491200 -0.55595800  0.34184100
C   0.55155083 -0.44283613 -0.74224712
C  -0.92432717 -0.26447713 -0.47228612
C  -1.63689317  0.71588687 -1.17807312
C  -3.00562317  0.89754687 -0.97080112
C  -3.68804317  0.10662687 -0.04662012
C  -2.98984017 -0.86916613  0.66760788
C  -1.62418617 -1.05702813  0.45266688
H   4.32540768 -1.14711027  1.46889040
H   3.79724668  0.39180173  2.19023140
H   2.81108968 -1.07686327  2.40375240
H   2.82844568  0.96464573 -1.26880560
H   4.21516068 -0.12329827 -0.99884160
H   4.02353868  1.34354973 -0.01298160
H   0.94484000 -1.01557700  1.23411100
H   0.91772283  0.23055487 -1.52007912
H   0.41638771 -2.21246656 -1.92125087
H  -1.11459317  1.35560487 -1.88574712
H  -3.53408717  1.66628687 -1.52724512
H  -4.75137417  0.25002587  0.11907488
H  -3.50872917 -1.48925613  1.39309088
H  -1.10737717 -1.82943413  1.01920788
C   2.88969946 -2.96895091 -2.62476576
C   1.59876446 -3.56581991 -3.17794076
N   0.35041446 -3.07622491 -2.49672376
C  -0.21616354 -4.11966991 -1.58101276
C   0.72156646 -4.57913291 -0.46756576
C  -0.70808654 -2.70263391 -3.49490076
C  -0.36427954 -1.51256491 -4.38626176
H   3.74557546 -3.41484591 -3.14194976
H   3.00865146 -3.16061691 -1.55396576
H   2.92571746 -1.88838591 -2.79500276
H   1.62150946 -4.65897791 -3.10902476
H   1.52343846 -3.32700591 -4.24003276
H  -0.51709054 -4.98141091 -2.19332076
H  -1.12493754 -3.69332191 -1.14902976
H   1.04077246 -3.75054191  0.17244024
H   1.61476546 -5.08263391 -0.84835276
H   0.18938146 -5.29800291  0.16343224
H  -0.92036754 -3.58875191 -4.10939076
H  -1.61108854 -2.47692691 -2.92206576
H  -0.21957254 -0.59734791 -3.80655176
H   0.52335346 -1.67825691 -5.00432976
H  -1.20257054 -1.33833291 -5.06813976

