47
iminium2 + Et3N reactant complex
C   2.99123700 -0.26261700  2.09043300
N   2.43309700 -0.10764400  0.73138400
C   3.36018700  0.51482700 -0.23121800
C   1.22591100 -0.49592000  0.45442700
C   0.48811800 -0.40807600 -0.82379700
C  -0.94351600  0.04269800 -0.54384900
C  -1.27462000  1.40160900 -0.61373500
C  -2.57755900  1.82344700 -0.34491200
C  -3.55489500  0.89206900  0.00952000
C  -3.22849900 -0.46357700  0.08917100
C  -1.92807300 -0.88726800 -0.18642000
H   3.87483800 -0.90454000  2.04317900
H   3.28098100  0.72135600  2.46898300
H   2.24599200 -0.70581400  2.75089500
H   2.93073300  0.53824000 -1.22867800
H   4.28278800 -0.07092900 -0.24955600
H   3.58768900  1.53037500  0.10492000
H   0.68866500 -0.94603400  1.28770100
H   0.97375000  0.25754800 -1.54091600
H   0.49486500 -1.42733300 -1.28949200
H  -0.51881000  2.13239400 -0.89306800
H  -2.82739600  2.87806100 -0.41274800
H  -4.56845000  1.22036900  0.21917500
H  -3.98781700 -1.19232100  0.35705300
H  -1.68283300 -1.94570900 -0.13612300
C   2.78396700 -2.55904400 -2.99851900
C   1.64252200 -3.53237700 -3.29755500
N   0.42825400 -3.30054000 -2.47099900
C   0.22982300 -4.37769600 -1.48029800
C   1.33661900 -4.47486600 -0.43062100
C  -0.78391900 -3.15783100 -3.31005000
C  -0.81695700 -1.87181800 -4.13438000
H   3.65578400 -2.78788800 -3.62189200
H   3.09668400 -2.61900400 -1.94951000
H   2.47974900 -1.52767000 -3.21274300
H   1.99265900 -4.56534300 -3.16349100
H   1.37735400 -3.44661200 -4.35621700
H   0.12211200 -5.35656700 -1.98198100
H  -0.72359100 -4.18542600 -0.97358500
H   1.45028900 -3.53214900  0.11990800
H   2.30655900 -4.72729000 -0.87028200
H   1.09234300 -5.25919400  0.29342300
H  -0.89865200 -4.03120900 -3.97637300
H  -1.64910000 -3.16477900 -2.63776500
H  -0.81543700 -0.98663900 -3.48920700
H   0.02880000 -1.79498900 -4.82593500
H  -1.73141800 -1.84452400 -4.73617800
