47
Properties=species:S:1:pos:R:3:forces:R:3 charge=1 spin=1 energy=-20036.249896903704 free_energy=-20036.249896903704 stress="6.707464118542676 0.16474965536637187 -0.15600941453128112 0.16474965536637187 5.17037606099115 -0.3852394499693179 -0.15600941453128112 -0.3852394499693179 3.7115714112557203" pbc="F F F"
C        2.51526196       1.20479245       3.22643132      -0.02099027      -0.00696517      -0.04168253
N        1.95712196       1.35976545       1.86738232      -0.57533216      -0.15821360      -0.15703964
C        2.88421196       1.98223645       0.90478032      -0.04952990      -0.02746350       0.02639543
C        0.74993596       0.97148945       1.59042532       0.63488251       0.13424566       0.12547652
C        0.01214296       1.05933345       0.31220132       0.01319267       0.00288945      -0.10720585
C       -1.41949104       1.51010745       0.59214932      -0.23451339       0.07613784       0.08138812
C       -1.75059504       2.86901845       0.52226332      -0.16042395      -0.25757581       0.05550115
C       -3.05353404       3.29085645       0.79108632       0.04961989      -0.27098069       0.03446216
C       -4.03087004       2.35947845       1.14551832       0.27568385      -0.09076516      -0.06051875
C       -3.70447404       1.00383245       1.22516932       0.18340096       0.19697219      -0.07025958
C       -2.40404804       0.58014145       0.94957832       0.02212294       0.30188635      -0.05706770
H        3.39886296       0.56286945       3.17917732      -0.13577951       0.09872091      -0.02252850
H        2.80500596       2.18876545       3.60498132      -0.04909464      -0.14030711      -0.08979286
H        1.77001696       0.76159545       3.88689332       0.08618422       0.05885723      -0.11379369
H        2.45475796       2.00564945      -0.09267968       0.03089110      -0.02124386       0.12524305
H        3.80681296       1.39648045       0.88644232      -0.14509206       0.06456146       0.02163387
H        3.11171396       2.99778445       1.24091832      -0.04852254      -0.16090214      -0.02856345
H        0.21268996       0.52137545       2.42369932       0.04290107       0.03580526      -0.03761458
H        0.49777496       1.72495745      -0.40491768      -0.06339191      -0.05939770       0.09545440
H        0.01888996       0.04007645      -0.15349368      -0.01151179       0.19893062       0.16697156
H       -0.99478504       3.59980345       0.24293032      -0.08653133      -0.09392073       0.02191113
H       -3.30337104       4.34547045       0.72325032       0.03110283      -0.15330328       0.00870497
H       -5.04442504       2.68777845       1.35517332       0.14671484      -0.04948368      -0.03555210
H       -4.46379204       0.27508845       1.49305132       0.10797337       0.10543497      -0.03649328
H       -2.15880804      -0.47829955       0.99987532      -0.00315398       0.09552867      -0.02300885
C        2.30799196      -1.09163455      -1.86252068      -0.05873460      -0.02976103       0.00189526
C        1.16654696      -2.06496755      -2.16155668      -0.12734078       0.03755101       0.10209815
N       -0.04772104      -1.83313055      -1.33500068       0.04395270      -0.12878005      -0.09571435
C       -0.24615204      -2.91028655      -0.34429968       0.01921613       0.09238410      -0.08376341
C        0.86064396      -3.00745655       0.70537732      -0.02754151       0.03019940      -0.08999426
C       -1.25989404      -1.69042155      -2.17405168       0.11986909      -0.01822216       0.06165628
C       -1.29293204      -0.40440855      -2.99838168       0.05104109      -0.06772391       0.04517877
H        3.17980896      -1.32047855      -2.48589368      -0.13851255       0.03675511       0.09893627
H        2.62070896      -1.15159455      -0.81351168      -0.06425445      -0.01139485      -0.09922367
H        2.00377396      -0.06026055      -2.07674468      -0.00084851      -0.12641324       0.02532735
H        1.51668396      -3.09793355      -2.02749268      -0.05463943       0.12119396       0.01192866
H        0.90137896      -1.97920255      -3.22021868       0.00973171       0.00014504       0.13043386
H       -0.35386304      -3.88915755      -0.84598268       0.02492633       0.13905831       0.04082980
H       -1.19956604      -2.71801655       0.16241332       0.11291004      -0.00920269      -0.06849532
H        0.97431396      -2.06473955       1.25590632      -0.03416992      -0.07818568      -0.07764403
H        1.83058396      -3.25988055       0.26571632      -0.13020554       0.04180611       0.02663692
H        0.61636796      -3.79178455       1.42942132       0.03043618       0.12613247      -0.11864166
H       -1.37462704      -2.56379955      -2.84037468       0.03380777       0.10612769       0.09108932
H       -2.12507504      -1.69736955      -1.50176668       0.10229279       0.00138335      -0.06116826
H       -1.29141204       0.48077045      -2.35320868       0.00797627      -0.10772570      -0.04202767
H       -0.44717504      -0.32757955      -3.68993668      -0.10081065      -0.03009613       0.11389525
H       -2.20739304      -0.37711455      -3.60017968       0.14009497      -0.00467937       0.10474540
47
Properties=species:S:1:pos:R:3:forces:R:3 charge=1 spin=1 energy=-20036.26774315433 free_energy=-20036.26774315433 stress="3.39540393079369 -0.44077133315227524 0.09498371903570194 -0.44077133315227524 -0.24677594617010518 -0.03654818515287896 0.09498371903570194 -0.03654818515287896 1.9260199177209576" pbc="F F F"
C        2.52915145       1.19655311       3.20538757      -0.05042065       0.02580542      -0.03826069
N        1.96041315       1.35593932       1.85434829      -0.30298084       0.00306407      -0.04356983
C        2.87881850       1.98428717       0.89468274      -0.01098794      -0.02089149      -0.00741418
C        0.75605415       0.97706311       1.58800767       0.28847274      -0.34508500      -0.21971782
C        0.01827603       1.02980111       0.29776433      -0.06230140       1.06588864       0.51404238
C       -1.41210480       1.49147968       0.59553657      -0.07818789      -0.02427295      -0.12442352
C       -1.76856117       2.83411795       0.49082382       0.08504045      -0.12753588       0.02183290
C       -3.06952170       3.24269695       0.75836745       0.08212400      -0.00034120       0.01284338
C       -4.03146634       2.32148157       1.14444975       0.17531468      -0.00860653      -0.05933461
C       -3.68331472       0.98452777       1.25462919       0.01736475       0.02729583       0.00983054
C       -2.38569829       0.57591689       0.98020015       0.06841650      -0.07012436       0.01605695
H        3.41297028       0.55929226       3.14906745      -0.08581782       0.05502563      -0.02874963
H        2.81595489       2.17863057       3.58173689      -0.00335653      -0.05436742      -0.02627968
H        1.78986815       0.75147230       3.86633115       0.03446931       0.00919372      -0.03658140
H        2.44039617       2.03006523      -0.09326611      -0.03566575      -0.01326005      -0.01617150
H        3.79401974       1.39501849       0.85209586      -0.04235287      -0.01661839       0.03163765
H        3.12112407       2.98827006       1.24370300      -0.03703870      -0.05000096       0.01329111
H        0.22655533       0.51424035       2.41867150       0.01326667       0.09029415      -0.00002574
H        0.49286611       1.71769213      -0.40750575      -0.06610469      -0.16105568       0.04046602
H        0.02473217       0.03146366      -0.15584293       0.01809801      -0.37966558      -0.08397394
H       -1.02418250       3.55854339       0.18819986       0.01157265       0.10986385      -0.04124437
H       -3.33372210       4.28463415       0.66767427       0.01171409       0.11639982      -0.03167321
H       -5.04342988       2.64002191       1.35147620      -0.00613108       0.01679728      -0.00019416
H       -4.43271197       0.26609367       1.55017744       0.00509836      -0.13391955       0.00939121
H       -2.12659404      -0.47023344       1.05736357       0.01219392      -0.18449286       0.00037259
C        2.31196928      -1.10042164      -1.83285626      -0.07163588       0.01233697       0.02612265
C        1.15897830      -2.04827728      -2.14099783      -0.05777537      -0.01909011       0.03837252
N       -0.05038655      -1.80409713      -1.32538550      -0.01540223      -0.01252976      -0.02471309
C       -0.26812450      -2.87739622      -0.34330005       0.00569233       0.03321730      -0.07165809
C        0.82912898      -2.99805913       0.70541499      -0.00673706       0.04547232      -0.04032252
C       -1.25035790      -1.65413671      -2.16966284       0.03251698      -0.00684551       0.00427963
C       -1.26687371      -0.37745351      -3.00110837       0.04608291      -0.02614047       0.04763727
H        3.18049766      -1.34039079      -2.45040331      -0.04167601       0.01557363       0.04425919
H        2.61306200      -1.16887495      -0.78369420      -0.02024688      -0.00889357      -0.02245232
H        2.02420271      -0.06721839      -2.04526781      -0.00865647      -0.01784281       0.00978744
H        1.48906959      -3.08378664      -2.00923938       0.00413132      -0.01770207       0.01825355
H        0.90392212      -1.95802851      -3.19870333      -0.01210850       0.02006102       0.03391660
H       -0.38141868      -3.84638616      -0.85472894      -0.01550599       0.01110982       0.01112280
H       -1.22040441      -2.67979746       0.15872301       0.05044964       0.00909611      -0.04091498
H        0.95271400      -2.06286509       1.26122186      -0.00137047       0.00011622      -0.03068366
H        1.79333994      -3.26334871       0.26766140      -0.04094570       0.03126595       0.00439716
H        0.57093798      -3.77954928       1.42295012       0.01108936       0.04564765      -0.05235552
H       -1.36484492      -2.52781510      -2.82953187       0.00666993       0.00451137       0.00928928
H       -2.12151473      -1.65186769      -1.50929340       0.04387981       0.00719170       0.00636949
H       -1.25920939       0.50874255      -2.36065013       0.00993892      -0.04108076      -0.02140366
H       -0.41917720      -0.31517645      -3.68772692      -0.03444866      -0.00702729       0.06516909
H       -2.17540325      -0.34286508      -3.60750115       0.07425807      -0.00783839       0.07337702
47
Properties=species:S:1:pos:R:3:forces:R:3 charge=1 spin=1 energy=-20036.26300402139 free_energy=-20036.26300402139 stress="1.3520903485557687 -0.5464733852549282 0.20133107310406775 -0.5464733852549282 -2.6410442073805256 0.26752309423852116 0.20133107310406775 0.26752309423852116 0.7316927361986398" pbc="F F F"
C        2.54452345       1.18875317       3.18545581      -0.04480582       0.03681835      -0.02807414
N        1.96654663       1.35437208       1.84186607      -0.20789289       0.04949113      -0.00018416
C        2.87566427       1.98816773       0.88194919       0.02275720      -0.01559392      -0.02043993
C        0.76258614       0.97923270       1.58406988       0.18281756      -0.48337451      -0.30134428
C        0.02187642       1.02421263       0.29623859      -0.08504758       1.15597200       0.62786353
C       -1.40871035       1.47485621       0.59922095      -0.02439912      -0.03732597      -0.20123383
C       -1.78641371       2.80413985       0.45794798       0.15295842      -0.02984132       0.00046451
C       -3.08812301       3.20182462       0.72353786       0.11373086       0.10960089      -0.00705289
C       -4.03239198       2.28327744       1.14343045       0.09328014       0.05878009      -0.05933004
C       -3.66525323       0.95980469       1.28767178      -0.02402121      -0.07001110       0.05098082
C       -2.36672879       0.56309288       1.01477109       0.06092520      -0.23182926       0.05970245
H        3.42882715       0.55534384       3.11962726      -0.05072551       0.02749206      -0.02629504
H        2.83003746       2.16899749       3.56258181       0.02120965      -0.00826101       0.01097376
H        1.81120159       0.73996528       3.84783644       0.00564409      -0.01801595       0.00507160
H        2.42605898       2.05652321      -0.09744503      -0.06871223      -0.00594681      -0.07724438
H        3.78333617       1.39228803       0.81591722       0.00646141      -0.04826139       0.02891256
H        3.13256977       2.98116976       1.24541727      -0.01793849       0.01596041       0.02624814
H        0.24263499       0.50610114       2.41398563      -0.01933948       0.10741313       0.02519954
H        0.48688013       1.71523240      -0.41030236      -0.04351467      -0.15263644       0.00435403
H        0.03358899       0.02556271      -0.14993136       0.02579324      -0.45641312      -0.14695010
H       -1.05491869       3.52608228       0.12831476       0.05886237       0.19079788      -0.07160519
H       -3.36583743       4.23461322       0.60608656      -0.01352401       0.21869542      -0.05283557
H       -5.04423154       2.59427722       1.34808292      -0.10184278       0.04208338       0.02311532
H       -4.40230012       0.24440164       1.61097013      -0.03931404      -0.22147021       0.03431066
H       -2.09556395      -0.47497144       1.11935614       0.03799885      -0.28294626       0.01652984
C        2.31730329      -1.10964194      -1.80243647      -0.06406159       0.03328327       0.02948054
C        1.15477205      -2.03700209      -2.12417904      -0.02032524      -0.03228145       0.00661457
N       -0.05479173      -1.78294825      -1.32110131      -0.02987496       0.09273208       0.04382111
C       -0.29221276      -2.85032701      -0.34317791       0.00847850       0.00580484      -0.04941475
C        0.79689720      -2.99043693       0.70727255       0.00609545       0.04926010      -0.00192406
C       -1.24437326      -1.61965406      -2.17042319      -0.01185684       0.00842419      -0.02387920
C       -1.24068344      -0.34876850      -3.00596782       0.03548795       0.01414854       0.03679863
H        3.18621535      -1.35956847      -2.41285648      -0.00125638       0.00625878       0.01867426
H        2.60753491      -1.18669023      -0.75225224      -0.00379596      -0.00771445       0.02045077
H        2.04626347      -0.07302348      -2.01335413      -0.01304553       0.02983460       0.00442452
H        1.46783000      -3.07538296      -1.99605455       0.03967946      -0.11069472       0.02325775
H        0.91069289      -1.93860551      -3.18140344      -0.02177987       0.02889912      -0.04163744
H       -0.41652846      -3.81343549      -0.85757731      -0.03225928      -0.07618855      -0.01812719
H       -1.24257657      -2.64119367       0.15414935       0.00309422       0.01972063      -0.01565303
H        0.93075061      -2.06075241       1.26768118       0.01208218       0.03538631      -0.01184789
H        1.75776530      -3.26841098       0.27368977       0.00299669       0.02392356      -0.01234367
H        0.52453227      -3.76940815       1.41991420       0.00025953       0.00556199      -0.01670852
H       -1.36506022      -2.49211928      -2.82662227      -0.00953359      -0.06645253      -0.04458538
H       -2.11906023      -1.60452500      -1.51753697       0.00295069       0.00787060       0.04267877
H       -1.22700043       0.53900517      -2.36944606       0.01550858      -0.01003770      -0.00584173
H       -0.38989333      -0.29938532      -3.68778570      -0.00147318       0.00137702       0.04120820
H       -2.14423620      -0.30504622      -3.61718921       0.04126760      -0.01029353       0.05341654
47
Properties=species:S:1:pos:R:3:forces:R:3 charge=1 spin=1 energy=-20036.279240800734 free_energy=-20036.279240800734 stress="0.325758810734296 -0.35842260751136934 0.1718466478452551 -0.35842260751136934 -2.8237829174603197 0.3906136857596686 0.1718466478452551 0.3906136857596686 0.0589068921049801" pbc="F F F"
C        2.56022414       1.18093729       3.16629441      -0.01852957       0.03383875      -0.01604624
N        1.97429067       1.35341495       1.82931110      -0.23314227       0.02085847      -0.00361918
C        2.87385756       1.99265583       0.86698101       0.04885807      -0.00994465      -0.01920567
C        0.76937109       0.97774442       1.57831606       0.24198492      -0.39173782      -0.20542406
C        0.02389697       1.03266391       0.30198092      -0.07202183       0.62406385       0.42141017
C       -1.40791660       1.45871018       0.60201873      -0.05188885      -0.00066704      -0.18390691
C       -1.80361740       2.77665921       0.42362747       0.11033209       0.03381911      -0.00922310
C       -3.10776116       3.16552592       0.68732817       0.13282323       0.10161442      -0.01471186
C       -4.03314625       2.24513877       1.14236021       0.04292898       0.10451909      -0.06128103
C       -3.64923564       0.93148876       1.32248680       0.01288438      -0.09616222       0.05587221
C       -2.34748248       0.54398396       1.05089905       0.02459124      -0.23128194       0.06970279
H        3.44532165       0.55084079       3.09126639      -0.02860221       0.01311439      -0.01842126
H        2.84523739       2.15961350       3.54607053       0.03066500       0.00775040       0.02861058
H        1.83255962       0.72726789       3.83057395      -0.00525200      -0.02820836       0.01998832
H        2.41137157       2.08346633      -0.10428894      -0.07378206      -0.00169470      -0.07933479
H        3.77397263       1.38844814       0.77793668       0.01576455      -0.04426907       0.02122361
H        3.14496644       2.97521416       1.24570427       0.00336545       0.04578314       0.01670760
H        0.25955819       0.49644397       2.40878308      -0.04974240       0.10053550       0.03803237
H        0.48075619       1.71448821      -0.41419069      -0.00681165      -0.07291433      -0.01901669
H        0.04419521       0.02130591      -0.13937257       0.01441220      -0.21572131      -0.09662468
H       -1.08568511       3.49835833       0.06476068       0.06525868       0.17732444      -0.06846479
H       -3.39815047       4.19159888       0.54103996      -0.03489622       0.19176321      -0.05093521
H       -5.04576712       2.55051051       1.34541874      -0.15133290       0.03801880       0.03768838
H       -4.37246197       0.21458909       1.67348095      -0.04240887      -0.19827890       0.03424032
H       -2.06546498      -0.48875192       1.18296365       0.06389467      -0.24873313       0.01807348
C        2.32362069      -1.11827068      -1.77127714      -0.04548146       0.03937254       0.01886543
C        1.15282076      -2.02853625      -2.10942209      -0.00742194      -0.01803392      -0.00369019
N       -0.06033641      -1.76622099      -1.31956124      -0.01550074       0.18147983       0.10385190
C       -0.31744865      -2.82660039      -0.34289296       0.01939507      -0.00154538      -0.02236834
C        0.76471916      -2.98361203       0.71094592       0.01299509       0.04522782       0.02568018
C       -1.24096458      -1.58580133      -2.17383338      -0.02399302       0.02329298      -0.03246815
C       -1.21490274      -0.31840577      -3.01175746       0.02162857       0.04712552       0.01947368
H        3.19516306      -1.37747870      -2.37400080      -0.00106476       0.00663262       0.01454800
H        2.60374597      -1.20386657      -0.71948534      -0.00646790      -0.00696462       0.03625211
H        2.06953618      -0.07717115      -1.98083169      -0.01631978       0.03293347       0.00618769
H        1.45106042      -3.07015490      -1.98596607       0.05819107      -0.16507028       0.02666002
H        0.92019097      -1.91952800      -3.16658518      -0.02217927       0.02975824      -0.09411996
H       -0.45656992      -3.78653963      -0.85595920      -0.03245516      -0.12855040      -0.04306520
H       -1.26529618      -2.60188136       0.15008658      -0.02679008       0.02398968       0.00379991
H        0.90915893      -2.05817310       1.27561521       0.01160311       0.04088662      -0.01287659
H        1.72376119      -3.27386247       0.28253319       0.01286451       0.01997760      -0.02296734
H        0.47827602      -3.76045787       1.41974363      -0.00251525      -0.00437084      -0.00441136
H       -1.37219275      -2.45631399      -2.82818499      -0.01727650      -0.10809044      -0.07468640
H       -2.11747378      -1.55534761      -1.52527858      -0.02129517       0.00520296       0.05622456
H       -1.19537654       0.57146588      -2.37881907       0.02237329      -0.00465903       0.00609297
H       -0.36022021      -0.28082278      -3.68883956       0.00700168       0.00045645       0.03435626
H       -2.11416172      -0.26473730      -3.62798038       0.03335590      -0.01244162       0.04332604
47
Properties=species:S:1:pos:R:3:forces:R:3 charge=1 spin=1 energy=-20036.292401589308 free_energy=-20036.292401589308 stress="-0.022138494044041182 -0.06223768465965171 0.04258716001886705 -0.06223768465965171 -1.7564965396434735 0.26481527694063445 0.04258716001886705 0.26481527694063445 -0.1986082687218322" pbc="F F F"
C        2.57509969       1.17265012       3.14756170       0.01482029       0.02408530      -0.00698029
N        1.98241357       1.35141914       1.81605882      -0.30426133      -0.04015375      -0.02769165
C        2.87250666       1.99652918       0.85017953       0.06469062      -0.00493778      -0.00862366
C        0.77624820       0.97234447       1.57045034       0.37089464      -0.19287887      -0.02631168
C        0.02529056       1.04525088       0.30934812      -0.03658389      -0.07553545       0.11472801
C       -1.40833248       1.44151473       0.60274615      -0.12369107       0.04760837      -0.11528084
C       -1.81963697       2.74925112       0.38785398       0.01811858       0.07106948      -0.01165109
C       -3.12685936       3.13108729       0.65046901       0.13842982       0.02784454      -0.00805896
C       -4.03322842       2.20733826       1.14113889       0.02064300       0.13113856      -0.06368946
C       -3.63420802       0.90140553       1.35726395       0.08427747      -0.07296551       0.03358149
C       -2.32830229       0.52090471       1.08619196      -0.02239916      -0.13144422       0.05074124
H        3.46134188       0.54559971       3.06439446      -0.01643263       0.00832649      -0.00823750
H        2.85953840       2.15022593       3.53075747       0.03115997       0.00456656       0.03358248
H        1.85248454       0.71357364       3.81370842      -0.00395092      -0.02736276       0.01824121
H        2.39595913       2.10933756      -0.11287032      -0.05892667      -0.00086672      -0.04711032
H        3.76513951       1.38365792       0.73818447       0.00200326      -0.02003296       0.01417946
H        3.15722944       2.96913390       1.24420715       0.02253670       0.05046979      -0.00672658
H        0.27595421       0.48475495       2.40220521      -0.07343797       0.08284441       0.03965799
H        0.47543349       1.71236950      -0.42005394       0.02819232       0.02773928      -0.03033244
H        0.05528561       0.01762558      -0.12778016      -0.00909762       0.08111124      -0.03641487
H       -1.11517327       3.47130975      -0.00097674       0.04591338       0.10774443      -0.03860491
H       -3.42909463       4.15178232       0.47508724      -0.04729069       0.08821408      -0.02823236
H       -5.04697372       2.50868792       1.34390890      -0.16781417       0.01670327       0.04633836
H       -4.34310298       0.18123276       1.73576145      -0.02392730      -0.11282531       0.01336174
H       -2.03604432      -0.50781324       1.24529669       0.08254136      -0.14045492       0.00471761
C        2.33054819      -1.12528312      -1.73939414      -0.02412488       0.03652452       0.00175646
C        1.15201698      -2.02027405      -2.09504880      -0.00817293       0.00634366      -0.00491188
N       -0.06642040      -1.75045239      -1.31817841       0.01205499       0.24776904       0.14922705
C       -0.34286399      -2.80373786      -0.34140491       0.02942488      -0.00267634       0.00489021
C        0.73336538      -2.97660652       0.71643106       0.01646826       0.03707236       0.04317445
C       -1.23915629      -1.55140628      -2.17739405      -0.01883879       0.03374575      -0.03215460
C       -1.19007313      -0.28641757      -3.01727470       0.00741126       0.06847015       0.00197724
H        3.20554181      -1.39358857      -2.33458387      -0.02398952       0.01331548       0.02335987
H        2.60131348      -1.21923016      -0.68569305      -0.01964270      -0.00633341       0.03299579
H        2.09360080      -0.07915670      -1.94752857      -0.01973345       0.00938425       0.01168662
H        1.43685612      -3.06553486      -1.97700181       0.06465892      -0.18794340       0.02828224
H        0.93091609      -1.89939037      -3.15251467      -0.01660753       0.02557832      -0.12302648
H       -0.49892059      -3.76193265      -0.85130603      -0.02254217      -0.15060061      -0.06002538
H       -1.28777692      -2.56153676       0.14792896      -0.03894887       0.02290471       0.01479907
H        0.88867410      -2.05489878       1.28535492       0.00294746       0.02967102      -0.02475272
H        1.69122878      -3.27849825       0.29292338       0.00101854       0.01875948      -0.02748919
H        0.43329444      -3.75179518       1.42186849       0.00092264       0.00449330      -0.00759274
H       -1.38316234      -2.42000116      -2.83075918      -0.01856913      -0.12309834      -0.08481006
H       -2.11651764      -1.50434160      -1.53129939      -0.03036261       0.00043080       0.05453436
H       -1.16492906       0.60603227      -2.38799177       0.02857085      -0.01434616       0.01534404
H       -0.33105459      -0.26010545      -3.68961505       0.00020373      -0.00489461       0.03705084
H       -2.08544965      -0.22301764      -3.63861118       0.04144308      -0.01457765       0.04050184
47
Properties=species:S:1:pos:R:3:forces:R:3 charge=1 spin=1 energy=-20036.288864605318 free_energy=-20036.288864605318 stress="-0.040510758735293466 0.19096853518963733 -0.12379467254187933 0.19096853518963733 -0.44307491906912966 -0.07726705157102037 -0.12379467254187933 -0.07726705157102037 -0.19642858965707868" pbc="F F F"
C        2.58799626       1.16343632       3.12891604       0.04186969       0.01449482      -0.00479015
N        1.98968359       1.34673587       1.80148468      -0.34987792      -0.09218287      -0.04762010
C        2.87071986       1.99856551       0.83194608       0.06808806      -0.00224691       0.00591733
C        0.78305667       0.96277904       1.56017685       0.47310472      -0.00081928       0.14254898
C        0.02701005       1.05206947       0.31269703       0.00006868      -0.55959904      -0.10474229
C       -1.40856690       1.42174299       0.60021948      -0.19194517       0.07857456      -0.04075978
C       -1.83393716       2.71949065       0.35061916      -0.06911662       0.09063432      -0.01158820
C       -3.14384082       3.09579519       0.61369100       0.13383868      -0.05574581       0.00712582
C       -4.03213774       2.17014861       1.13966628       0.01486721       0.14143433      -0.06401402
C       -3.61911641       0.87138054       1.39019296       0.15130965      -0.02882071      -0.00040158
C       -2.30953115       0.49616968       1.11825773      -0.06425708      -0.00405407       0.01770988
H        3.47577594       0.53943721       3.03942109      -0.01074898       0.00929032       0.00059587
H        2.87092421       2.14058207       3.51519708       0.02897765      -0.00631471       0.03306384
H        1.86951867       0.69907602       3.79640458       0.00355200      -0.02205229       0.01060311
H        2.37944685       2.13257986      -0.12226168      -0.03439145      -0.00167352      -0.00613334
H        3.75604718       1.37807645       0.69669087      -0.01800522       0.00785308       0.01153465
H        3.16827416       2.96165961       1.24056907       0.03668519       0.04206171      -0.03331262
H        0.29045233       0.47052023       2.39339339      -0.08580449       0.06640647       0.03280664
H        0.47185120       1.70578622      -0.42877530       0.04831527       0.10608147      -0.03039292
H        0.06559499       0.01345404      -0.11876773      -0.03213818       0.22544116      -0.03985888
H       -1.14207466       3.44087477      -0.06741185       0.01772343       0.02548023       0.00244178
H       -3.45710335       4.11135473       0.41078119      -0.05054601      -0.03354042       0.00492207
H       -5.04678847       2.46877558       1.34397864      -0.16561361      -0.00972842       0.05104026
H       -4.31412861       0.14890937       1.79586321      -0.00231286      -0.01617666      -0.01657688
H       -2.00704916      -0.52839375       1.30346586       0.08999874      -0.01697215      -0.01690147
C        2.33771250      -1.12965448      -1.70680332      -0.00809114       0.03041859      -0.01401975
C        1.15125329      -2.00960975      -2.07938097      -0.01000632       0.02256523      -0.00915564
N       -0.07244353      -1.73217952      -1.31436595       0.03927778       0.28681073       0.17459217
C       -0.36749060      -2.77926089      -0.33767345       0.03189395      -0.01053846       0.02854833
C        0.70360638      -2.96844248       0.72372389       0.01824999       0.02874956       0.05096697
C       -1.23797284      -1.51529665      -2.17860584      -0.01254237       0.03661095      -0.03402951
C       -1.16673615      -0.25285614      -3.02131696      -0.00360746       0.07623836      -0.00984283
H        3.21555262      -1.40736517      -2.29535329      -0.05216574       0.02228622       0.03677561
H        2.59985573      -1.23160718      -0.65117492      -0.03499221      -0.00615831       0.01955385
H        2.11803730      -0.07847545      -1.91327285      -0.02348796      -0.02235319       0.01746954
H        1.42331234      -3.05895522      -1.96718965       0.06310772      -0.18624566       0.02805838
H        0.94136794      -1.87678707      -3.13745805      -0.00863123       0.01926903      -0.13026662
H       -0.54095800      -3.73584863      -0.84504920      -0.00863842      -0.14933731      -0.06679355
H       -1.30923245      -2.51983605       0.14907070      -0.03666347       0.01815416       0.01668675
H        0.87003126      -2.05070104       1.29723126      -0.00767563       0.01402658      -0.03839164
H        1.66006921      -3.28111342       0.30359210      -0.01936510       0.01875224      -0.02625229
H        0.39071273      -3.74251679       1.42571886       0.00755194       0.02046804      -0.01808078
H       -1.39488881      -2.38278269      -2.83088397      -0.01583255      -0.11714163      -0.08016102
H       -2.11595405      -1.45151308      -1.53438057      -0.02742202      -0.00529499       0.04497610
H       -1.13624935       0.64261194      -2.39618675       0.03257808      -0.02833160       0.02229254
H       -0.30329323      -0.23784995      -3.68883868      -0.01257314      -0.01025825       0.04230002
H       -2.05836980      -0.18096657      -3.64781813       0.05539448      -0.01651581       0.04155512
47
Properties=species:S:1:pos:R:3:forces:R:3 charge=1 spin=1 energy=-20036.281258410734 free_energy=-20036.281258410734 stress="-0.02905569452679547 0.2998025363229091 -0.2549172290446468 0.2998025363229091 0.1993378839937971 -0.5251516756509402 -0.2549172290446468 -0.5251516756509402 -0.14043094214970214" pbc="F F F"
C        2.59794179       1.15291722       3.11005652       0.05067091       0.01105522      -0.01180188
N        1.99503940       1.33794827       1.78507080      -0.31605825      -0.10022296      -0.04369670
C        2.86772277       1.99772232       0.81270818       0.05819673      -0.00315359       0.01826265
C        0.78964691       0.94893787       1.54728895       0.46877554       0.09358120       0.22289674
C        0.02991290       1.04433288       0.30707470       0.01460522      -0.55895853      -0.09699575
C       -1.40737153       1.39808236       0.59345802      -0.21232300       0.07657252      -0.00055027
C       -1.84609621       2.68523087       0.31197823      -0.10744048       0.09908677      -0.01226171
C       -3.15735442       3.05719949       0.57767448       0.12224410      -0.09864947       0.01974010
C       -4.02948474       2.13381610       1.13785805       0.01344961       0.13533050      -0.05955623
C       -3.60302859       0.84311271       1.41967829       0.18246372       0.01116584      -0.02706388
C       -2.29148711       0.47196632       1.14501650      -0.08490507       0.08236931      -0.00787326
H        3.48767859       0.53221622       3.01669121      -0.00818659       0.01237499       0.00426475
H        2.87768336       2.13045914       3.49812039       0.02974681      -0.01418567       0.03366452
H        1.88244479       0.68397992       3.77793750       0.01159043      -0.01876531       0.00734381
H        2.36154936       2.15187055      -0.13155934      -0.01140577      -0.00078309       0.02056964
H        3.74600807       1.37191260       0.65354797      -0.02970429       0.02349867       0.01483126
H        3.17717992       2.95169767       1.23452601       0.04454838       0.03203956      -0.05151492
H        0.30184871       0.45342263       2.38165943      -0.08260986       0.06070949       0.02125420
H        0.47081824       1.69206625      -0.44104951       0.04630872       0.13422373      -0.02350920
H        0.07395981       0.00756693      -0.11581275      -0.04090061       0.07914367      -0.14811906
H       -1.16529030       3.40345281      -0.13311751      -0.00450210      -0.02858317       0.03327333
H       -3.48086584       4.06684428       0.35042279      -0.04842336      -0.11973953       0.03204607
H       -5.04432818       2.43069355       1.34596644      -0.15805829      -0.03036483       0.05277118
H       -4.28546456       0.12180416       1.85205953       0.00891959       0.04576000      -0.03936409
H       -1.97824361      -0.54696191       1.35497645       0.08556589       0.07151720      -0.03549250
C        2.34477402      -1.13053549      -1.67355656      -0.00475061       0.02592951      -0.02154956
C        1.14953692      -1.99424069      -2.06094072      -0.00179486       0.01400510      -0.02555247
N       -0.07785395      -1.70827910      -1.30581033       0.05623472       0.29251483       0.17417395
C       -0.39046713      -2.75097316      -0.33080194       0.02446024      -0.03428802       0.04523842
C        0.67610082      -2.95828006       0.73277298       0.01878149       0.02432809       0.04899788
C       -1.23651881      -1.47645051      -2.17527481      -0.01876890       0.03022944      -0.04735436
C       -1.14534602      -0.21782157      -3.02284690      -0.00774791       0.07101732      -0.01102878
H        3.22356277      -1.41841012      -2.25701052      -0.06899193       0.02952014       0.04765899
H        2.59900547      -1.24002209      -0.61624431      -0.04530696      -0.00728752       0.00474991
H        2.14246558      -0.07475982      -1.87795195      -0.02679322      -0.04536915       0.02027232
H        1.40866470      -3.04813220      -1.95475550       0.05677048      -0.16671091       0.02603721
H        0.95018473      -1.85051627      -3.11987446      -0.00155640       0.01373234      -0.12037628
H       -0.58027940      -3.70488790      -0.83856831       0.00340965      -0.13473643      -0.06291571
H       -1.32897694      -2.47654379       0.15469176      -0.02661174       0.01243862       0.01109411
H        0.85384688      -2.04542121       1.31148714      -0.01416338       0.00416445      -0.04573391
H        1.63014915      -3.28069275       0.31337427      -0.03579979       0.01800329      -0.01976112
H        0.35148294      -3.73183508       1.43072308       0.01365859       0.03280583      -0.02813313
H       -1.40451201      -2.34433899      -2.82547404      -0.01230922      -0.09848781      -0.06752648
H       -2.11556313      -1.39693376      -1.53351126      -0.01735366      -0.01038452       0.03471928
H       -1.10982734       0.68105414      -2.40274059       0.03369351      -0.03681733       0.02687395
H       -0.27772226      -0.21467491      -3.68541322      -0.02284036      -0.01208080       0.04422888
H       -2.03312653      -0.13959586      -3.65450511       0.06521235      -0.01754915       0.04276817
47
Properties=species:S:1:pos:R:3:forces:R:3 charge=1 spin=1 energy=-20036.274149373414 free_energy=-20036.274149373414 stress="-0.05206180252954039 0.2889970556199808 -0.32970598641502724 0.2889970556199808 0.07058899103733499 -0.9483533911292833 -0.32970598641502724 -0.9483533911292833 -0.11677002754171692" pbc="F F F"
C        2.60554610       1.14138122       3.09103692       0.04193025       0.01371412      -0.02387039
N        1.99890242       1.32565794       1.76722802      -0.22005470      -0.06646898      -0.01970732
C        2.86376201       1.99452221       0.79312118       0.03924036      -0.00719881       0.02482529
C        0.79596721       0.93196012       1.53235666       0.37258312       0.08634080       0.21696284
C        0.03402616       1.02297890       0.29353587       0.00304024      -0.16251653       0.09158601
C       -1.40474043       1.37108508       0.58324811      -0.18457434       0.04941190       0.00312037
C       -1.85668052       2.64674418       0.27253920      -0.09764477       0.10103165      -0.01375308
C       -3.16801339       3.01514282       0.54266209       0.10555509      -0.09559499       0.02443665
C       -4.02584803       2.09835693       1.13576765       0.01128905       0.11763604      -0.05042229
C       -3.58607160       0.81719866       1.44599367       0.17747819       0.03685013      -0.03988019
C       -2.27427147       0.44937589       1.16710594      -0.08226886       0.11432442      -0.01798446
H        3.49755531       0.52420288       2.99598665      -0.00696296       0.01563175       0.00233519
H        2.88075760       2.11989463       3.47979538       0.03362675      -0.01670903       0.03591381
H        1.89213864       0.66858914       3.75854235       0.01787665      -0.01906029       0.01028251
H        2.34275987       2.16792683      -0.14006726       0.00581357       0.00277800       0.02884734
H        3.73522251       1.36580845       0.60938618      -0.03061152       0.02414399       0.02182548
H        3.18445311       2.93968432       1.22662207       0.04690748       0.02420150      -0.05810636
H        0.31039230       0.43485706       2.36779874      -0.06646378       0.06408025       0.00859609
H        0.47200957       1.67217493      -0.45593107       0.02673303       0.11890817      -0.01331221
H        0.08010153      -0.00262376      -0.12120792      -0.03085130      -0.27002430      -0.31276670
H       -1.18554467       3.35945763      -0.19717587      -0.01777025      -0.04738157       0.04602973
H       -3.50129772       4.01771201       0.29412154      -0.04493865      -0.15736690       0.04535935
H       -5.04027379       2.39396088       1.34945543      -0.14864187      -0.04201224       0.05127076
H       -4.25721272       0.10069498       1.90455370       0.00995553       0.06593885      -0.04903214
H       -1.94953892      -0.56198886       1.40076874       0.07292753       0.11425161      -0.04534764
C        2.35168635      -1.12860429      -1.64001935      -0.01322320       0.02351492      -0.02141290
C        1.14687344      -1.97450176      -2.03999381       0.01171530      -0.01598549      -0.04995156
N       -0.08252040      -1.67858426      -1.29257708       0.06115810       0.25795031       0.14444697
C       -0.41186209      -2.71913436      -0.32114416       0.01181596      -0.06661841       0.05110317
C        0.65053371      -2.94648105       0.74311447       0.01691321       0.02444766       0.03894784
C       -1.23459625      -1.43515425      -2.16786535      -0.03336865       0.01587618      -0.06692623
C       -1.12559731      -0.18183026      -3.02226519      -0.00585434       0.05668315      -0.00277949
H        3.22938663      -1.42749575      -2.21985557      -0.07097845       0.03412447       0.05441689
H        2.59852159      -1.24522513      -0.58133467      -0.04919234      -0.00972895      -0.00754304
H        2.16685342      -0.06883572      -1.84197003      -0.02883427      -0.05551712       0.01962339
H        1.39237073      -3.03325219      -1.93964884       0.04812635      -0.13619974       0.02302645
H        0.95720983      -1.82114971      -3.09990271       0.00367679       0.00992336      -0.09904342
H       -0.61639420      -3.66883865      -0.83279196       0.01175812      -0.11418189      -0.05106949
H       -1.34719925      -2.43219348       0.16410685      -0.01407094       0.00683603       0.00141875
H        0.83970454      -2.03950761       1.32759925      -0.01486792       0.00158398      -0.04535907
H        1.60103486      -3.27787201       0.32200286      -0.04451249       0.01615001      -0.00960143
H        0.31504999      -3.71996910       1.43629455       0.01774533       0.03836935      -0.03443706
H       -1.41108675      -2.30503388      -2.81471267      -0.00952549      -0.07355770      -0.05172091
H       -2.11528057      -1.34124630      -1.52949070      -0.00465482      -0.01411204       0.02600154
H       -1.08527017       0.72070045      -2.40798184       0.03255605      -0.03752470       0.02897359
H       -0.25416493      -0.19121647      -3.67977514      -0.02835685      -0.01008160       0.04209407
H       -2.00935424      -0.09932928      -3.65903286       0.06780092      -0.01686124       0.04258336
47
Properties=species:S:1:pos:R:3:forces:R:3 charge=1 spin=1 energy=-20036.26244409662 free_energy=-20036.26244409662 stress="-0.06574729527012782 0.22222070562281562 -0.35933790228739554 0.22222070562281562 -0.4567202335383945 -1.232562722984646 -0.35933790228739554 -1.232562722984646 -0.11355847591362495" pbc="F F F"
C        2.61223355       1.12946027       3.07209364       0.02289258       0.01916433      -0.03444555
N        2.00245760       1.31150577       1.74884538      -0.11036883      -0.01182685       0.00974997
C        2.85960992       1.99029357       0.77395774       0.01794189      -0.01297285       0.02434608
C        0.80201624       0.91362826       1.51634993       0.24296990       0.01214842       0.16327886
C        0.03894931       0.99395243       0.27622862      -0.02314336       0.34453079       0.31686926
C       -1.40130738       1.34226360       0.57128595      -0.13054632       0.01301671      -0.01373836
C       -1.86676524       2.60554871       0.23319479      -0.06061481       0.09896275      -0.01538241
C       -3.17744238       2.97064830       0.50867111       0.08582205      -0.06450704       0.02099541
C       -4.02230470       2.06366882       1.13351946       0.00713217       0.09545957      -0.03836846
C       -3.56891790       0.79366749       1.47037531       0.14998721       0.04671824      -0.04075456
C       -2.25787397       0.42891006       1.18656295      -0.06275008       0.10732749      -0.01498892
H        3.50665848       0.51587091       2.97679927      -0.00624319       0.01801854      -0.00365127
H        2.88245480       2.10906003       3.46128145       0.03810571      -0.01565180       0.03727422
H        1.90055360       0.65325845       3.73894866       0.02196038      -0.02179097       0.01649982
H        2.32397245       2.18251618      -0.14719625       0.01744271       0.00803172       0.02422809
H        3.72434805       1.36062915       0.56511309      -0.02408536       0.01435724       0.02909110
H        3.19133486       2.92684353       1.21781744       0.04497724       0.01783564      -0.05514488
H        0.31708004       0.41709996       2.35337062      -0.04361763       0.07009882      -0.00258130
H        0.47451627       1.64895056      -0.47162994      -0.00226083       0.07935952      -0.00036387
H        0.08419728      -0.02040817      -0.13663590      -0.00644788      -0.59023649      -0.43297496
H       -1.20450117       3.31136992      -0.25893131      -0.02415067      -0.04135701       0.04300417
H       -3.52046092       3.96492905       0.24085855      -0.04233734      -0.15532000       0.04531434
H       -5.03611160       2.35789010       1.35363985      -0.13618319      -0.04572880       0.04621668
H       -4.22956566       0.08460525       1.95454277       0.00603483       0.05713494      -0.04719542
H       -1.92092209      -0.57297690       1.44355174       0.05657799       0.12018467      -0.04586020
C        2.35855406      -1.12532545      -1.60671866      -0.02825856       0.02133234      -0.01762825
C        1.14378239      -1.95208593      -2.01770375       0.01857875      -0.05376518      -0.07200041
N       -0.08652816      -1.64445031      -1.27595673       0.05479069       0.17577033       0.08321740
C       -0.43222272      -2.68526876      -0.30969770       0.00050114      -0.09316446       0.04238065
C        0.62608873      -2.93402592       0.75407217       0.01175539       0.02744681       0.02374177
C       -1.23236635      -1.39236793      -2.15821060      -0.04428766      -0.00429164      -0.08128880
C       -1.10679343      -0.14561301      -3.02071295      -0.00117867       0.03771827       0.01084299
H        3.23358364      -1.43599719      -2.18398166      -0.06176139       0.03690634       0.05814805
H        2.59822788      -1.24885515      -0.54694130      -0.04813660      -0.01277336      -0.01655516
H        2.19134765      -0.06214354      -1.80599729      -0.02914173      -0.05514735       0.01664079
H        1.37451707      -3.01577345      -1.92270664       0.03899686      -0.10125919       0.02006331
H        0.96290721      -1.79017229      -3.07854646       0.00741124       0.00786786      -0.07155395
H       -0.64979642      -3.62913049      -0.82841657       0.01685151      -0.09204023      -0.03512308
H       -1.36453859      -2.38771456       0.17567030      -0.00190146       0.00103489      -0.00894389
H        0.82665599      -2.03372108       1.34464972      -0.01062958       0.00376506      -0.03906880
H        1.57213794      -3.27413703       0.32967324      -0.04673821       0.01392331       0.00225166
H        0.28008278      -3.70765622       1.44183895       0.01982350       0.03827365      -0.03634156
H       -1.41465389      -2.26558300      -2.80046618      -0.00761337      -0.04679421      -0.03573191
H       -2.11512220      -1.28538738      -1.52405013       0.00739313      -0.01606569       0.01864358
H       -1.06173046       0.76063104      -2.41274984       0.03015623      -0.03197914       0.02873907
H       -0.23194870      -0.16811979      -3.67315062      -0.03003412      -0.00548181       0.03758931
H       -1.98639388      -0.06028785      -3.66251223       0.06432777      -0.01423423       0.04055974
47
Properties=species:S:1:pos:R:3:forces:R:3 charge=1 spin=1 energy=-20036.249941538867 free_energy=-20036.249941538867 stress="-0.035599584605701354 0.14273556921784353 -0.3598344386201426 0.14273556921784353 -0.9340148681863317 -1.270083122033114 -0.3598344386201426 -1.270083122033114 -0.09404881150138371" pbc="F F F"
C        2.61943523       1.11778912       3.05346458       0.00133628       0.02377368      -0.03796646
N        2.00689616       1.29714126       1.73081583      -0.03155369       0.04195722       0.03209707
C        2.85604320       1.98637148       0.75599151       0.00033739      -0.01870469       0.01636789
C        0.80779306       0.89573006       1.50024198       0.13455179      -0.09008890       0.09802455
C        0.04427829       0.96323975       0.25932656      -0.04704597       0.61873174       0.41690132
C       -1.39771144       1.31313828       0.55927528      -0.07175565      -0.01686925      -0.03559767
C       -1.87742972       2.56317290       0.19484005      -0.01494454       0.09267659      -0.01635850
C       -3.18727440       2.92474884       0.47571696       0.06449030      -0.02287648       0.01083415
C       -4.01993600       2.02964854       1.13123845       0.00107324       0.07332961      -0.02533562
C       -3.55224444       0.77254360       1.49406733       0.11200581       0.04188142      -0.03317214
C       -2.24228342       0.41107580       1.20543602      -0.03346998       0.07769534      -0.00372674
H        3.51624670       0.50769579       2.95861855      -0.00519185       0.01855984      -0.01176397
H        2.88509411       2.09812796       3.44364451       0.04076415      -0.01248148       0.03547587
H        1.90965195       0.63834302       3.71989008       0.02350133      -0.02568612       0.02276016
H        2.30608450       2.19741477      -0.15235805       0.02418464       0.01358752       0.01260511
H        3.71404603       1.35724169       0.52163857      -0.01343895      -0.00080794       0.03361155
H        3.19907239       2.91440573       1.20907574       0.03961613       0.01147715      -0.04561520
H        0.32291503       0.40243506       2.33994067      -0.02033690       0.07302461      -0.01064370
H        0.47742464       1.62524688      -0.48634910      -0.03264071       0.03427498       0.01511228
H        0.08642796      -0.04908225      -0.16377432       0.02234238      -0.59452993      -0.38960969
H       -1.22383094       3.26168743      -0.31773037      -0.02503245      -0.02144402       0.02831970
H       -3.54042687       3.90947904       0.18960562      -0.04141773      -0.12492582       0.03460263
H       -5.03333456       2.32179206       1.35771071      -0.12012117      -0.04303712       0.03785755
H       -4.20271672       0.07254387       2.00323199       0.00118171       0.03251660      -0.03691487
H       -1.89238077      -0.57943686       1.48604905       0.04011026       0.09955331      -0.03787434
C        2.36548297      -1.12217007      -1.57418277      -0.04466696       0.01772238      -0.01353021
C        1.14078758      -1.92869739      -1.99524150       0.00951008      -0.08614261      -0.08238404
N       -0.08996431      -1.60724518      -1.25724992       0.03698609       0.03913177      -0.01093037
C       -0.45210024      -2.65091111      -0.29746545      -0.00450429      -0.10155918       0.01693375
C        0.60194541      -2.92190029       0.76496814       0.00302684       0.03135224       0.00675860
C       -1.22999323      -1.34905716      -2.14815500      -0.04163194      -0.02770802      -0.08084095
C       -1.08823455      -0.10990236      -3.01933743       0.00310755       0.01805401       0.02560835
H        3.23671942      -1.44529455      -2.14948036      -0.04554747       0.03863887       0.05995053
H        2.59794866      -1.25255831      -0.51356000      -0.04362460      -0.01551783      -0.02213457
H        2.21609661      -0.05612879      -1.77070613      -0.02744085      -0.04676293       0.01262484
H        1.35519556      -2.99716476      -1.90477316       0.03034224      -0.06738847       0.01813641
H        0.96774596      -1.75907647      -3.05681655       0.00988808       0.00770215      -0.04259982
H       -0.68098821      -3.58720658      -0.82613660       0.01939245      -0.07059953      -0.01885414
H       -1.38163792      -2.34403973       0.18772851       0.00797581      -0.00480936      -0.01702135
H        0.81374860      -2.02882503       1.36171746      -0.00251464       0.00860188      -0.02848130
H        1.54286874      -3.27098068       0.33658461      -0.04418606       0.01211329       0.01390755
H        0.24524380      -3.69563808       1.44676188       0.02034531       0.03397766      -0.03379864
H       -1.41526241      -2.22670493      -2.78461475      -0.00611430      -0.02180503      -0.02146639
H       -2.11510448      -1.23029610      -1.51892849       0.01625840      -0.01567472       0.01260485
H       -1.03835706       0.79992393      -2.41788812       0.02728622      -0.02168871       0.02665272
H       -0.21039692      -0.14603012      -3.66677234      -0.02877149       0.00054180       0.03244073
H       -1.96358395      -0.02259008      -3.66606026       0.05633795      -0.00976751       0.03643249
47
Properties=species:S:1:pos:R:3:forces:R:3 charge=1 spin=1 energy=-20036.23580868449 free_energy=-20036.23580868449 stress="0.05738093234002927 0.08308249204528298 -0.3402730232058842 0.08308249204528298 -0.9526820779141895 -0.9769304469198387 -0.3402730232058842 -0.9769304469198387 0.010053662763418103" pbc="F F F"
C        2.62858221       1.10700253       3.03538764      -0.01495850       0.02348430      -0.03097292
N        2.01340935       1.28421390       1.71403236      -0.01868858       0.07298763       0.03694773
C        2.85383852       1.98409099       0.73999612      -0.00871592      -0.02214909       0.00220240
C        0.81329676       0.88005331       1.48500606       0.09035751      -0.17311054       0.05247933
C        0.04960905       0.93682716       0.24700334      -0.05687781       0.40526271       0.26428542
C       -1.39459167       1.28522951       0.54891981      -0.02656076      -0.02609579      -0.04827643
C       -1.88975334       2.52114518       0.15837002       0.02373895       0.07874655      -0.01549469
C       -3.19914247       2.87847732       0.44381505       0.04263129       0.01275507      -0.00321741
C       -4.01982312       1.99619285       1.12904961      -0.00639431       0.05333031      -0.01243997
C       -3.53672820       0.75385138       1.51831390       0.07397106       0.02646860      -0.02249325
C       -2.22748864       0.39638006       1.22577361      -0.00271983       0.04183602       0.00832241
H        3.52757855       0.50015298       2.94093398      -0.00258642       0.01616735      -0.01936778
H        2.89099467       2.08727102       3.42795049       0.03936587      -0.00830067       0.02876418
H        1.92139599       0.62419803       3.70210021       0.02232723      -0.02924982       0.02581365
H        2.28999341       2.21439879      -0.15496436       0.02725983       0.01774737       0.00020352
H        3.70497777       1.35651308       0.47987251      -0.00159359      -0.01591525       0.03280729
H        3.20891292       2.90360138       1.20136058       0.03149139       0.00323445      -0.03350192
H        0.32890042       0.39314608       2.32907452      -0.00289114       0.06792686      -0.01492299
H        0.47982094       1.60391766      -0.49829153      -0.05533241       0.00156003       0.03129888
H        0.08697448      -0.09194193      -0.20430080       0.04688905      -0.10686406      -0.10490396
H       -1.24520514       3.21290794      -0.37291959      -0.02126547       0.00118275       0.00779354
H       -3.56326697       3.85234560       0.13933454      -0.04141390      -0.08034620       0.01767086
H       -5.03343565       2.28497760       1.36085905      -0.10041585      -0.03589202       0.02706703
H       -4.17685923       0.06351975       2.05182661      -0.00174385       0.00515871      -0.02248473
H       -1.86390260      -0.58087957       1.53098427       0.02614524       0.06410974      -0.02381974
C        2.37257891      -1.12060922      -1.54293999      -0.05784487       0.01160694      -0.01127050
C        1.13841284      -1.90604035      -1.97377800      -0.01786079      -0.10076492      -0.07441495
N       -0.09291593      -1.56833677      -1.23775728       0.00793575      -0.14531259      -0.13053827
C       -0.47204588      -2.61759613      -0.28545034      -0.00076155      -0.08357630      -0.02180253
C        0.57728328      -2.91108976       0.77512445      -0.00851190       0.03436431      -0.00801999
C       -1.22764106      -1.30618755      -2.13954299      -0.02023735      -0.04855502      -0.05896151
C       -1.06922086      -0.07543088      -3.01928585       0.00439669       0.00156782       0.03769383
H        3.23935957      -1.45676795      -2.11644321      -0.02714672       0.03993139       0.06077453
H        2.59750827      -1.25798081      -0.48168658      -0.03724786      -0.01666152      -0.02490750
H        2.24124864      -0.05223694      -1.73676894      -0.02363071      -0.03308940       0.00924277
H        1.33449806      -2.97889492      -1.88669269       0.02155886      -0.03827240       0.01876993
H        0.97219516      -1.72935471      -3.03572379       0.01076032       0.00990360      -0.01597861
H       -0.71047172      -3.54451007      -0.82664655       0.02074308      -0.04912323      -0.00653060
H       -1.39914017      -2.30210170       0.19862787       0.01473843      -0.01002958      -0.02030925
H        0.80002973      -2.02558287       1.37788133       0.00804973       0.01415194      -0.01523854
H        1.51263759      -3.26989582       0.34293615      -0.03876541       0.01134110       0.02354684
H        0.20919554      -3.68465634       1.45046898       0.01985345       0.02740194      -0.02749636
H       -1.41296130      -2.18911823      -2.76903858      -0.00283374      -0.00151320      -0.00870897
H       -2.11524389      -1.17691155      -1.51586473       0.02038664      -0.01234422       0.00814772
H       -1.01429884       0.83765713      -2.42424024       0.02453206      -0.00827447       0.02353813
H       -0.18883295      -0.12559267      -3.66187303      -0.02560504       0.00676063       0.02804563
H       -1.94026299       0.01364550      -3.67079400       0.04547156      -0.00354802       0.03065788
47
Properties=species:S:1:pos:R:3:forces:R:3 charge=1 spin=1 energy=-20036.18715729722 free_energy=-20036.18715729722 stress="0.19670736472302253 0.06529589890025081 -0.29158708371028846 0.06529589890025081 -0.3309960612853155 -0.35276641887023846 -0.29158708371028846 -0.35276641887023846 0.28697497626338264" pbc="F F F"
C        2.64106944       1.09772452       3.01810325      -0.01930605       0.01479618      -0.01482285
N        2.02314501       1.27434572       1.69937672      -0.07545348       0.06604227       0.02076612
C        2.85375333       1.98475834       0.72673109      -0.00708560      -0.02198831      -0.01283330
C        0.81853382       0.86836039       1.47161658       0.11717703      -0.18955654       0.04010176
C        0.05454012       0.92056909       0.24332390      -0.05435865      -0.16038157      -0.09390441
C       -1.39257179       1.26004620       0.54189510      -0.00348499      -0.01088972      -0.04388439
C       -1.90478456       2.48097627       0.12467316       0.04234663       0.05132897      -0.01182467
C       -3.21463572       2.83285255       0.41299014       0.02278996       0.02645013      -0.01734156
C       -4.02301876       1.96320564       1.12707750      -0.01448552       0.03396346       0.00082925
C       -3.52303276       0.73761831       1.54432387       0.04432478       0.00833199      -0.01608027
C       -2.21348159       0.38532934       1.24957341       0.01854747       0.01530067       0.01174640
H        3.54187926       0.49370900       2.92324529       0.00350534       0.00941641      -0.02256702
H        2.90241608       2.07666434       3.41524024       0.03213555      -0.00406774       0.01644756
H        1.93769643       0.61117426       3.68629817       0.01835415      -0.03078759       0.02266008
H        2.27658252       2.23519770      -0.15444342       0.02841374       0.01880148      -0.00668768
H        3.69778821       1.35928556       0.44071577       0.00958828      -0.02515012       0.02415092
H        3.22207035       2.89563515       1.19561447       0.02136991      -0.00859440      -0.02407492
H        0.33601284       0.39144466       2.32230207       0.00263264       0.05212111      -0.01568516
H        0.48081353       1.58776779      -0.50569847      -0.06078312      -0.00911437       0.04266811
H        0.08601492      -0.15207518      -0.25973991       0.06145116       0.60557592       0.30239812
H       -1.27024391       3.16748183      -0.42385181      -0.01310931       0.01499033      -0.01148835
H       -3.59099396       3.79450004       0.08905366      -0.03997343      -0.03800622       0.00139569
H       -5.03786772       2.24677796       1.36229422      -0.07734015      -0.02671770       0.01531211
H       -4.15218908       0.05656717       2.10149292      -0.00123963      -0.01235890      -0.00916514
H       -1.83548354      -0.57682153       1.58100193       0.01619527       0.02740086      -0.00788688
C        2.37993992      -1.12208454      -1.51351660      -0.06424055       0.00345462      -0.01123509
C        1.13716787      -1.88579640      -1.95446778      -0.05076199      -0.08598351      -0.04687822
N       -0.09547536      -1.52912445      -1.21879069      -0.02736622      -0.31398517      -0.23138595
C       -0.49259158      -2.58683950      -0.27464759       0.00917722      -0.03867005      -0.05684328
C        0.55130668      -2.90256097       0.78387219      -0.02030046       0.03580561      -0.01592505
C       -1.22546679      -1.26472650      -2.13418432       0.01345480      -0.05394366      -0.01634532
C       -1.04907332      -0.04292707      -3.02167888       0.00151279      -0.00715300       0.04420397
H        3.24205712      -1.47176199      -2.08496770      -0.01212138       0.04092142       0.06117458
H        2.59673110      -1.26673029      -0.45181520      -0.03078361      -0.01434901      -0.02656399
H        2.26693595      -0.05188350      -1.70485220      -0.01775320      -0.01763617       0.00880785
H        1.31253086      -2.96241465      -1.86930733       0.00939138      -0.01481823       0.02485295
H        0.97671727      -1.70248139      -3.01626846       0.00844981       0.01553567       0.00573560
H       -0.73873395      -3.50248150      -0.83061911       0.02380316      -0.02217852      -0.00365195
H       -1.41766549      -2.26282475       0.20674139       0.01899715      -0.01299374      -0.01699531
H        0.78457230      -2.02474004       1.39223456       0.01901694       0.01824025      -0.00148246
H        1.48087810      -3.27233844       0.34891992      -0.03257626       0.01174182       0.02951808
H        0.17064153      -3.67543721       1.45237768       0.01867961       0.02106164      -0.01927587
H       -1.40781355      -2.15353829      -2.75559400       0.00784865       0.01198254       0.00635617
H       -2.11555042      -1.12617095      -1.51655839       0.01949009      -0.00549512       0.00583925
H       -0.98872976       0.87291650      -2.43262626       0.02217464       0.00612885       0.02040469
H       -0.16659989      -0.10744251      -3.65965774      -0.02188218       0.01181434       0.02527324
H       -1.91579106       0.04829333      -3.67780335       0.03357739       0.00361316       0.02418665
47
Properties=species:S:1:pos:R:3:forces:R:3 charge=1 spin=1 energy=-20036.086609498754 free_energy=-20036.086609498754 stress="0.26805191498932446 0.08336941350516815 -0.18863489414342569 0.08336941350516815 0.6130386065161041 0.4038188548980913 -0.18863489414342569 0.4038188548980913 0.7570760519547048" pbc="F F F"
C        2.65746029       1.09033174       3.00190962      -0.01217832      -0.00093359      -0.00164664
N        2.03625281       1.26852763       1.68747257      -0.10532125       0.03880829      -0.00038189
C        2.85610208       1.98901640       0.71663101      -0.00065429      -0.02321607      -0.01616131
C        0.82368103       0.86182954       1.46107524       0.10474191      -0.14528354       0.00446131
C        0.05872926       0.91728755       0.24985379      -0.03731741      -0.41813061      -0.28235716
C       -1.39192254       1.23883398       0.53922854       0.01278946      -0.00112969      -0.03335830
C       -1.92286123       2.44377007       0.09448614       0.03500873       0.00971797      -0.00963427
C       -3.23433433       2.78856908       0.38348169       0.00842919       0.01523949      -0.02880159
C       -4.02991893       1.93075519       1.12543711      -0.02358999       0.01168780       0.01645195
C       -3.51151374       0.72394223       1.57249437       0.02396774      -0.00477831      -0.01774933
C       -2.20032692       0.37841956       1.27766535       0.02375052       0.00095195       0.00185105
H        3.55960683       0.48862493       2.90528813       0.01483088      -0.00242895      -0.01700968
H        2.92024813       2.06654117       3.40597814       0.01999648       0.00008571       0.00178937
H        1.95927761       0.59952108       3.67286896       0.01174586      -0.02959373       0.01322374
H        2.26641226       2.26046709      -0.15060350       0.02815954       0.01677475      -0.00570462
H        3.69274559       1.36583208       0.40486232       0.01966227      -0.02458686       0.00671920
H        3.23899290       2.89111818       1.19229418       0.01126941      -0.02246415      -0.02143895
H        0.34462003       0.39788458       2.32033233      -0.00506334       0.03256015      -0.01491150
H        0.48001847       1.57847824      -0.50769099      -0.04657509      -0.01652505       0.03834899
H        0.08366267      -0.22778604      -0.32809590       0.04775580       0.72374517       0.40518463
H       -1.29939451       3.12676930      -0.47002450      -0.00060123       0.01566133      -0.02503581
H       -3.62427050       3.73663065       0.03861237      -0.03528026      -0.00765584      -0.00877855
H       -5.04716184       2.20699322       1.36164739      -0.05269629      -0.01696047       0.00415704
H       -4.12896105       0.05130382       2.15250087       0.00253107      -0.01451701      -0.00055853
H       -1.80731066      -0.56690968       1.63692772       0.01081128       0.00024612       0.00521547
C        2.38748552      -1.12736050      -1.48639292      -0.06408910      -0.00289433      -0.00978139
C        1.13723831      -1.86912757      -1.93808808      -0.05553652      -0.04176377      -0.01267410
N       -0.09785552      -1.49173095      -1.20192039      -0.04477892      -0.29563171      -0.20546736
C       -0.51382639      -2.55971836      -0.26587591       0.01506230       0.01382329      -0.05658036
C        0.52379012      -2.89684431       0.79075089      -0.02635911       0.03818501      -0.01434481
C       -1.22346246      -1.22568193      -2.13309029       0.03212890      -0.02841937       0.02792173
C       -1.02759138      -0.01302644      -3.02702558      -0.00193091      -0.00497712       0.04600307
H        3.24507591      -1.49080487      -2.05528803      -0.00544493       0.04066633       0.06069164
H        2.59544311      -1.27952813      -0.42440182      -0.02554697      -0.00718684      -0.02927424
H        2.29292038      -0.05579471      -1.67548578      -0.01041985      -0.00451419       0.01322888
H        1.28973266      -2.94875937      -1.85340885      -0.01121952       0.00702817       0.03883648
H        0.98162245      -1.67951506      -2.99920841       0.00068936       0.02477515       0.02215653
H       -0.76591353      -3.46250100      -0.83822606       0.03206010       0.01884995      -0.01218653
H       -1.43730955      -2.22693919       0.21105443       0.02238352      -0.01100933      -0.00804242
H        0.76703759      -2.02662804       1.40419961       0.02765976       0.01903021       0.00979359
H        1.44755953      -3.27891669       0.35456378      -0.02732006       0.01247734       0.03118731
H        0.12922891      -3.66835189       1.45217745       0.01604684       0.01697435      -0.01242195
H       -1.40020412      -2.12060727      -2.74558818       0.03103214       0.01990721       0.02987471
H       -2.11588544      -1.07896817      -1.52180253       0.01621136       0.00430657       0.00635363
H       -0.96140140       0.90496799      -2.44332629       0.02004872       0.01871704       0.01810530
H       -0.14349448      -0.09198040      -3.66069587      -0.01893193       0.01499623       0.02419993
H       -1.89002391       0.08106527      -3.68755412       0.02208229       0.00938485       0.01854570
47
Properties=species:S:1:pos:R:3:forces:R:3 charge=1 spin=1 energy=-20036.029654768176 free_energy=-20036.029654768176 stress="0.18783570694975804 0.09273337908042346 -0.06024102168790779 0.09273337908042346 1.4384503610494688 0.934495151543713 -0.06024102168790779 0.934495151543713 1.246890258159541" pbc="F F F"
C        2.67748662       1.08495349       2.98716277       0.00029474      -0.01670614       0.00095610
N        2.05188425       1.26711937       1.67868549      -0.01531548       0.02079706      -0.00489677
C        2.86075624       1.99684471       0.70980553       0.00084924      -0.03227910      -0.00391162
C        0.82908550       0.86105486       1.45441100      -0.04053114      -0.08170306      -0.09844249
C        0.06189350       0.92677210       0.26565915      -0.00370266      -0.13901487      -0.08801697
C       -1.39256168       1.22257513       0.54129941       0.04659671      -0.01615464      -0.03309012
C       -1.94361058       2.41022360       0.06839383       0.00460413      -0.04019897      -0.01430114
C       -3.25780950       2.74599729       0.35574389       0.00332666      -0.01034098      -0.03777611
C       -4.04026304       1.89907415       1.12423390      -0.03476955      -0.01574550       0.03669847
C       -3.50221886       0.71299141       1.60241084       0.00694577      -0.01015066      -0.02475181
C       -2.18816194       0.37613600       1.30971154       0.01386614      -0.01276269      -0.01977685
H        3.58045210       0.48495644       2.88703405       0.03130331      -0.01887792      -0.00323445
H        2.94401081       2.05719287       3.40005211       0.00658171       0.00475897      -0.01091385
H        1.98567750       0.58938646       3.66186353       0.00343055      -0.02625127      -0.00122288
H        2.25972013       2.28978864      -0.14363289       0.02762782       0.01268241       0.00308919
H        3.68974135       1.37585636       0.37279920       0.02949926      -0.01450288      -0.01606867
H        3.25936303       2.89006815       1.19137072       0.00370440      -0.03477623      -0.02475761
H        0.35448081       0.41136175       2.32305337      -0.01920953       0.01935510      -0.01114336
H        0.47755958       1.57660607      -0.50427002      -0.02345111      -0.04508013       0.01871836
H        0.07996642      -0.31259469      -0.40385275      -0.02568539       0.06227943       0.03629651
H       -1.33193124       3.09104040      -0.51107979       0.01547502       0.00669166      -0.03178729
H       -3.66240924       3.67914266      -0.01129890      -0.02765004       0.00975700      -0.01192194
H       -5.06092728       2.16589235       1.35897156      -0.02965597      -0.00694774      -0.00529949
H       -4.10748882       0.04793086       2.20422414       0.00829198      -0.00360592       0.00227232
H       -1.77976220      -0.55092143       1.69776844       0.00912732      -0.01130486       0.01193410
C        2.39495669      -1.13652440      -1.46200327      -0.05990715      -0.00610101      -0.00157658
C        1.13848568      -1.85667629      -1.92503883      -0.02648890       0.00652563       0.01049201
N       -0.10038997      -1.45900238      -1.18897500      -0.01296332      -0.04348275      -0.02789534
C       -0.53539642      -2.53687135      -0.25977744       0.01289261       0.05160122      -0.02311028
C        0.49507832      -2.89403391       0.79550848      -0.02068312       0.04340010      -0.00704763
C       -1.22145512      -1.19010238      -2.13647381       0.02453089       0.01567692       0.05058775
C       -1.00505296       0.01372853      -3.03522345       0.00124140       0.00430269       0.04670767
H        3.24839053      -1.51360831      -2.02777509      -0.00849574       0.03775518       0.05763535
H        2.59347180      -1.29620944      -0.39986423      -0.02284237       0.00512773      -0.03356046
H        2.31859338      -0.06400752      -1.64906303      -0.00392736       0.00422994       0.02300298
H        1.26687457      -2.93854923      -1.83973866      -0.03766607       0.02958574       0.05639888
H        0.98706854      -1.66109844      -2.98505905      -0.01189213       0.03563245       0.03285127
H       -0.79180072      -3.42588832      -0.84913824       0.04370191       0.07091706      -0.02476723
H       -1.45764357      -2.19498138       0.21116464       0.02590068       0.00101476       0.00258509
H        0.74767518      -2.03116448       1.41352828       0.03211363       0.01807832       0.01696308
H        1.41318678      -3.28939081       0.35973141      -0.02433616       0.01356837       0.02907829
H        0.08554845      -3.66341653       1.44982977       0.01046586       0.01563669      -0.00937694
H       -1.39083994      -2.09089412      -2.73977915       0.05954126       0.02551966       0.06037775
H       -2.11596164      -1.03615372      -1.53148376       0.01555831       0.01581715       0.01378731
H       -0.93264295       0.93325767      -2.45608047       0.01793968       0.02768945       0.01837231
H       -0.11976716      -0.07937285      -3.66492117      -0.01729564       0.01638622       0.02497606
H       -1.86331295       0.11151070      -3.69988804       0.01105749       0.01120040       0.01486738
47
Properties=species:S:1:pos:R:3:forces:R:3 charge=1 spin=1 energy=-20036.11663486921 free_energy=-20036.11663486921 stress="-0.07368781877686542 0.0686687474192461 -0.024410966348178364 0.0686687474192461 1.7604828685597549 1.0288682059648409 -0.024410966348178364 1.0288682059648409 1.3506788624422177" pbc="F F F"
C        2.70084412       1.08170831       2.97422124       0.01872317      -0.03229568       0.00447876
N        2.06914744       1.27045326       1.67336984       0.13253336       0.00661625       0.00868324
C        2.86756804       2.00819393       0.70635020      -0.00257578      -0.03802135       0.00685620
C        0.83510173       0.86660502       1.45265398      -0.21433857       0.00406104      -0.16478145
C        0.06375245       0.94868050       0.28969744       0.02823415       0.39662668       0.29061174
C       -1.39439161       1.21224050       0.54845879       0.08577295      -0.01979414      -0.04114992
C       -1.96662895       2.38101620       0.04697454      -0.03980356      -0.08288301      -0.02217273
C       -3.28458856       2.70549341       0.33024028       0.00190873      -0.04032996      -0.04136172
C       -4.05376193       1.86840233       1.12357290      -0.03970869      -0.04432903       0.05718448
C       -3.49518241       0.70493715       1.63362340      -0.00550809      -0.01031224      -0.03537488
C       -2.17712713       0.37896350       1.34532334      -0.00748543      -0.04104468      -0.04677241
H        3.60407252       0.48275024       2.86846487       0.04987773      -0.03757320       0.01286832
H        2.97316455       2.04891330       3.39732499      -0.00757996       0.00910620      -0.02268099
H        2.01638251       0.58091396       3.65331828      -0.00460829      -0.02130133      -0.01858292
H        2.25672959       2.32269733      -0.13373642       0.02920707       0.00486332       0.01980269
H        3.68865061       1.38903732       0.34500445       0.03631896      -0.00022824      -0.03827321
H        3.28282989       2.89247693       1.19279400      -0.00477230      -0.04781289      -0.03005172
H        0.36532754       0.43069998       2.33031758      -0.03005647       0.01085879      -0.00043033
H        0.47358272       1.58265950      -0.49547474      -0.00582213      -0.07953702      -0.01515569
H        0.07497205      -0.39981329      -0.48134135      -0.13555430      -0.92802608      -0.56762582
H       -1.36707743       3.06051778      -0.54666610       0.02981865      -0.00987865      -0.03356480
H       -3.70466410       3.62242900      -0.05995316      -0.01836358       0.01321190      -0.00919636
H       -5.07873318       2.12376470       1.35433804      -0.01082520       0.00228729      -0.01267490
H       -4.08808864       0.04667479       2.25599741       0.01578145       0.01670984      -0.00110127
H       -1.75322471      -0.52863985       1.76245185       0.00722341      -0.00802288       0.01156590
C        2.40208663      -1.14963411      -1.44077995      -0.05369628      -0.01023541       0.00779353
C        1.14075744      -1.84906241      -1.91570353       0.02489998       0.02947416       0.00906163
N       -0.10341751      -1.43381628      -1.18179435       0.06798013       0.32742101       0.20844412
C       -0.55692854      -2.51891803      -0.25698669       0.00233765       0.05756966       0.02364435
C        0.46554080      -2.89420494       0.79790192      -0.01212394       0.04277902       0.00153120
C       -1.21926466      -1.15903810      -2.14451305      -0.00368310       0.05162173       0.03967263
C       -0.98175677       0.03679939      -3.04614341       0.00479724       0.01171344       0.04380060
H        3.25196302      -1.53984856      -2.00280575      -0.01688861       0.03560879       0.05371551
H        2.59064475      -1.31657080      -0.37861854      -0.01991505       0.01981262      -0.03143767
H        2.34333030      -0.07652890      -1.62597134       0.00325922       0.01658573       0.03499353
H        1.24474214      -2.93238630      -1.82903602      -0.05864129       0.04424200       0.06871419
H        0.99320677      -1.64785618      -2.97432525      -0.02309143       0.04531657       0.03359549
H       -0.81617064      -3.39396054      -0.86300472       0.04991460       0.10897478      -0.03561667
H       -1.47821595      -2.16747924       0.20669633       0.02417737       0.02121093       0.01754284
H        0.72676024      -2.03824899       1.41998665       0.03521191       0.02149627       0.02572202
H        1.37828802      -3.30348423       0.36427933      -0.02178550       0.01643100       0.02428384
H        0.04023195      -3.66063186       1.44530797       0.00351622       0.01693961      -0.00689112
H       -1.38044191      -2.06496461      -2.73890106       0.07445387       0.02175693       0.08036482
H       -2.11548526      -0.99857624      -1.54544929       0.00991343       0.02937854       0.02664293
H       -0.90280870       0.95723944      -2.47060546       0.01603640       0.03869819       0.02245208
H       -0.09568808      -0.06977618      -3.67223973      -0.01600756       0.01672352       0.02761084
H       -1.83603114       0.13917189      -3.71461968       0.00093765       0.01353036       0.01325892
47
Properties=species:S:1:pos:R:3:forces:R:3 charge=1 spin=1 energy=-20036.311021409154 free_energy=-20036.311021409154 stress="-0.30554945151125795 -0.09034971599771006 -0.20803297343878233 -0.09034971599771006 1.3473244909509097 0.5539432685907107 -0.20803297343878233 0.5539432685907107 0.8729655944397243" pbc="F F F"
C        2.72722847       1.08071474       2.96344355       0.04354393      -0.04322233       0.02682291
N        2.08715048       1.27886160       1.67187999       0.27549088      -0.00166488       0.00991769
C        2.87638968       2.02301477       0.70636056       0.00318268      -0.03249782       0.00278617
C        0.84208422       0.87904874       1.45683433      -0.32200018       0.05839758      -0.06974813
C        0.06402572       0.98267045       0.32092612       0.01555496       0.73358214       0.43486688
C       -1.39731476       1.20880092       0.56105778       0.09830420       0.00527819      -0.03557212
C       -1.99151269       2.35682720       0.03080654      -0.06928232      -0.11905607      -0.03280666
C       -3.31419883       2.66741371       0.30743438      -0.00916000      -0.06359507      -0.04073172
C       -4.07012645       1.83897951       1.12355913      -0.03373326      -0.06540448       0.07089837
C       -3.49043870       0.69995078       1.66568221      -0.01450571      -0.01369845      -0.05283121
C       -2.16736297       0.38738690       1.38411210      -0.01443464      -0.07278209      -0.06584891
H        3.63012554       0.48205304       2.84956241       0.06232016      -0.05170904       0.02192130
H        3.00716980       2.04199637       3.39765963      -0.02374243       0.00903323      -0.03674390
H        2.05087903       0.57424714       3.64726962      -0.01339651      -0.01678320      -0.03374087
H        2.25766410       2.35872817      -0.12111891       0.03081412      -0.00609427       0.03612926
H        3.68934845       1.40505390       0.32195610       0.03139051       0.01356843      -0.05266413
H        3.30904268       2.89833639       1.19651392      -0.02055808      -0.06490178      -0.03430161
H        0.37689256       0.45472311       2.34197734      -0.02988052       0.00406601       0.01769525
H        0.46823376       1.59714670      -0.48134432       0.00257298      -0.10285261      -0.05267724
H        0.06872542      -0.48275402      -0.55489262      -0.12715273      -1.07764363      -0.64653623
H       -1.40405641       3.03542410      -0.57643184       0.03707458      -0.03009935      -0.02875480
H       -3.75028903       3.56688260      -0.10662342      -0.00631110       0.00282808       0.00009070
H       -5.10014874       2.08089963       1.34781817       0.00364694       0.00974414      -0.01637055
H       -4.07107674       0.04776212       2.30715536       0.02563705       0.04180615      -0.01131116
H       -1.72808471      -0.49984803       1.82990568       0.00356322       0.00415590       0.00155814
C        2.40860856      -1.16674747      -1.42315529      -0.05442997      -0.01077008       0.01737074
C        1.14390103      -1.84690576      -1.91046571       0.01457318       0.00764261      -0.00249063
N       -0.10727693      -1.41905023      -1.18221831       0.08837278       0.18376857       0.09009922
C       -0.57804961      -2.50647795      -0.25813813      -0.00541808       0.06371560       0.01740235
C        0.43554706      -2.89743257       0.79768820      -0.01160418       0.03029056       0.00343905
C       -1.21671098      -1.13353938      -2.15738622      -0.00092963       0.05037228       0.03560891
C       -0.95800152       0.05564769      -3.05965637       0.00322309       0.01250734       0.03632762
H        3.25575543      -1.56920185      -1.98075685      -0.02575021       0.03655038       0.05029958
H        2.58678954      -1.34040879      -0.36108089      -0.01671560       0.03192651      -0.01845855
H        2.36650646      -0.09336582      -1.60659809       0.00851783       0.03599776       0.04460616
H        1.22412093      -2.93087266      -1.82204017      -0.05351610       0.03881388       0.06746592
H        1.00018835      -1.64041294      -2.96751189      -0.01980437       0.05114678       0.01713617
H       -0.83879838      -3.36803479      -0.87947456       0.04257118       0.10001161      -0.03263630
H       -1.49857511      -2.14496070       0.19727378       0.01725996       0.04085261       0.03713945
H        0.70456794      -2.04778116       1.42334082       0.03680215       0.03587899       0.03623863
H        1.34339143      -3.32092033       0.36806407      -0.01788475       0.02038942       0.01736606
H       -0.00608879      -3.65999862       1.43858534       0.00004768       0.01968645      -0.00185687
H       -1.36973097      -2.04338450      -2.74368805       0.05642138       0.00328335       0.06263558
H       -2.11416253      -0.96708437      -1.56354631      -0.00522845       0.04142090       0.03728299
H       -0.87225296       0.97636720      -2.48661792       0.01536790       0.05060503       0.03154708
H       -0.07152738      -0.06334671      -3.68255766      -0.01387223       0.01587803       0.03045312
H       -1.80855145       0.16359113      -3.73156362      -0.00694270       0.01957656       0.01097648
47
Properties=species:S:1:pos:R:3:forces:R:3 charge=1 spin=1 energy=-20036.43366120299 free_energy=-20036.43366120299 stress="-0.4336207283889684 -0.3952149532788218 -0.5941930152180237 -0.3952149532788218 0.23780421400176904 -0.3987811917188627 -0.5941930152180237 -0.3987811917188627 -0.006352554927390709" pbc="F F F"
C        2.75633530       1.08208893       2.95518787       0.07577135      -0.05417289       0.08191936
N        2.10500572       1.29267337       1.67456642       0.38287419      -0.00791889       0.00623274
C        2.88707477       2.04125676       0.70992667       0.02674942      -0.01280906      -0.03074773
C        0.85038012       0.89894757       1.46797216      -0.35131592       0.09875718       0.12423605
C        0.06243671       1.02837268       0.35828957      -0.03499639       0.73695129       0.24663374
C       -1.40123305       1.21322186       0.57944372       0.06913229       0.07781943       0.00134917
C       -2.01785644       2.33833129       0.02046238      -0.07668565      -0.14593413      -0.04332476
C       -3.34616646       2.63211150       0.28778589      -0.02795622      -0.07328758      -0.04401292
C       -4.08906594       1.81104378       1.12429684      -0.01913859      -0.07896964       0.07661897
C       -3.48802065       0.69820058       1.69813800      -0.02576119      -0.02222353      -0.06942789
C       -2.15900850       0.40188635       1.42568836       0.00329402      -0.10198229      -0.07719468
H        3.65826777       0.48290995       2.83030826       0.05945286      -0.05580035       0.01940604
H        3.04548483       2.03673443       3.40091739      -0.04179962       0.00168964      -0.05711924
H        2.08865108       0.56952687       3.64375195      -0.02125679      -0.01187752      -0.04835449
H        2.26274321       2.39741421      -0.10598795       0.02674082      -0.02092794       0.05149791
H        3.69170899       1.42358260       0.30412653       0.00915111       0.02442607      -0.05169654
H        3.33765033       2.90763620       1.20247792      -0.04306395      -0.08660658      -0.03227260
H        0.38890658       0.48225172       2.35788112      -0.01287376      -0.01250310       0.04877443
H        0.46165905       1.62057131      -0.46191881       0.00072294      -0.09781279      -0.06786665
H        0.06126534      -0.55473807      -0.61884873       0.10191166       0.03669485       0.09428072
H       -1.44209119       3.01597603      -0.60003260       0.03581389      -0.05254493      -0.01609959
H       -3.79853689       3.51289284      -0.15058694       0.00896428      -0.01857431       0.01560689
H       -5.12474140       2.03758610       1.33948525       0.01422725       0.01524553      -0.01512269
H       -4.05676751       0.05141671       2.35703410       0.03672305       0.06659403      -0.02801311
H       -1.70472704      -0.46433450       1.89905692      -0.00246699       0.02166234      -0.01697961
C        2.41425652      -1.18792012      -1.40955765      -0.06073685      -0.00697977       0.02431607
C        1.14776112      -1.85082188      -1.90970449      -0.08159184      -0.07660674      -0.03112348
N       -0.11230106      -1.41755514      -1.19206824      -0.03356725      -0.72191215      -0.52043927
C       -0.59838682      -2.50016310      -0.26386437      -0.00763326       0.06810017      -0.07597703
C        0.40546508      -2.90378965       0.79462733      -0.01993688       0.01284164       0.00295552
C       -1.21361181      -1.11465029      -2.17526482       0.04124599      -0.01920945       0.04371737
C       -0.93408578       0.06973976      -3.07563157      -0.00566275       0.00969651       0.02831007
H        3.25973098      -1.60134254      -1.96200080      -0.03495994       0.04002240       0.04857424
H        2.58173437      -1.36751802      -0.34766219      -0.01246912       0.03939691       0.00467300
H        2.38749927      -0.11452202      -1.59132641       0.01270570       0.05944293       0.05109493
H        1.20579667      -2.93460857      -1.81948791      -0.01218475       0.00589661       0.04532430
H        1.00816575      -1.63938824      -2.96512076       0.00212620       0.05020567      -0.01723822
H       -0.85946352      -3.34942424      -0.89819335       0.01281754       0.03236568      -0.01090477
H       -1.51826983      -2.12794817       0.18252580       0.00788653       0.05492137       0.05614784
H        0.68137334      -2.05965866       1.42336054       0.03791298       0.05508576       0.04598376
H        1.30902410      -3.34142034       0.37094402      -0.01194557       0.02405684       0.00687961
H       -0.05278304      -3.66151597       1.42963863       0.00296068       0.02316898       0.00635068
H       -1.35943062      -2.02671412      -2.75487088      -0.00409131      -0.02753193      -0.00388876
H       -2.11169989      -0.94251886      -1.58561876      -0.02439088       0.04986240       0.04380194
H       -0.84132956       0.99010044      -2.50383382       0.01620718       0.05910466       0.04300736
H       -0.04755378      -0.06023691      -3.69577892      -0.00890283       0.01321121       0.03211682
H       -1.78124621       0.18431557      -3.75053369      -0.01000362       0.02896541       0.00799428
47
Properties=species:S:1:pos:R:3:forces:R:3 charge=1 spin=1 energy=-20036.43313401774 free_energy=-20036.43313401774 stress="-0.3939043408287813 -0.7186870805998623 -0.9924492044500297 -0.7186870805998623 -0.8494170696009802 -1.3175911271581056 -0.9924492044500297 -1.3175911271581056 -0.7376852818146428" pbc="F F F"
C        2.78785080       1.08565485       2.94976673       0.10471685      -0.06403998       0.14086780
N        2.12233780       1.31181447       1.68131015       0.46227378      -0.01530631       0.01136096
C        2.89964401       2.06273040       0.71647698       0.05094609       0.00823045      -0.07426996
C        0.85944456       0.92600133       1.48587388      -0.36717680       0.13596670       0.25732601
C        0.05916786       1.08214888       0.39914883      -0.05096125       0.54902858      -0.03587187
C       -1.40599077       1.22581645       0.60351056       0.01819384       0.16697052       0.04688428
C       -2.04505045       2.32563981       0.01582089      -0.07132038      -0.16038360      -0.05612564
C       -3.37987286       2.59958505       0.27129182      -0.04657546      -0.07285315      -0.05134962
C       -4.11010840       1.78462545       1.12579396      -0.00151346      -0.08359253       0.07432990
C       -3.48779194       0.69948896       1.73061671      -0.03287951      -0.03264362      -0.08127917
C       -2.15202882       0.42237518       1.46956391       0.02639613      -0.12567724      -0.08257650
H        3.68805107       0.48516873       2.81065830       0.04077881      -0.04904525       0.01050944
H        3.08730894       2.03323817       3.40677881      -0.05955769      -0.01377983      -0.07982352
H        2.12889638       0.56656576       3.64255594      -0.02533069      -0.00603935      -0.06072126
H        2.27171474       2.43805764      -0.08888828       0.01618595      -0.03576620       0.06347347
H        3.69548684       1.44400340       0.29130007      -0.02327408       0.03124811      -0.03738897
H        3.36827500       2.92010156       1.21033483      -0.06812321      -0.10908710      -0.02624373
H        0.40090146       0.51171407       2.37740362       0.01891845      -0.03032523       0.09269773
H        0.45406117       1.65288373      -0.43734214      -0.00997314      -0.06784333      -0.06378338
H        0.05177406      -0.61017937      -0.66891529       0.42562672       1.51525056       1.06722748
H       -1.48036663       3.00166633      -0.61799036       0.02651192      -0.07337029       0.00380372
H       -3.84853184       3.46041746      -0.19163503       0.02603471      -0.04621701       0.03550982
H       -5.15187033       1.99406852       1.32965060       0.02363705       0.01729864      -0.01006844
H       -4.04525153       0.05754356       2.40514039       0.04735761       0.08733103      -0.04772285
H       -1.68332860      -0.42255140       1.96873943      -0.00982665       0.04135496      -0.03818664
C        2.41886569      -1.21293898      -1.39993837      -0.07074900       0.00257251       0.03158319
C        1.15184798      -1.86090555      -1.91326762      -0.20447819      -0.19391751      -0.08068834
N       -0.11810123      -1.42896140      -1.21093045      -0.19503334      -1.66973114      -1.13903439
C       -0.61760794      -2.49966582      -0.27457128      -0.01809136       0.04288635      -0.20722735
C        0.37547840      -2.91307007       0.78884713      -0.02655968      -0.00098814       0.00226084
C       -1.20952434      -1.10266516      -2.19751527       0.08266103      -0.13085255       0.03821866
C       -0.91029035       0.07911757      -3.09373831      -0.01468966       0.00527029       0.02442743
H        3.26399689      -1.63571736      -1.94637303      -0.04768321       0.04405389       0.04809270
H        2.57538345      -1.39745598      -0.33814323      -0.00864983       0.04231465       0.03081898
H        2.40593254      -0.13960857      -1.58002310       0.01507462       0.08019646       0.05507813
H        1.19057761      -2.94397504      -1.82182084       0.04954871      -0.04445904       0.01110820
H        1.01744008      -1.64478338      -2.96728024       0.03364523       0.04341110      -0.05862461
H       -0.87848375      -3.33896875      -0.91838539      -0.03443198      -0.07287765       0.02158770
H       -1.53689568      -2.11629591       0.16262680       0.00289100       0.06482779       0.06614602
H        0.65743953      -2.07354359       1.42025909       0.03562850       0.07191835       0.04953148
H        1.27557850      -3.36444253       0.37300107      -0.00630155       0.02635487      -0.00511900
H       -0.09935023      -3.66499465       1.41885845       0.00971629       0.02898571       0.01212285
H       -1.35057570      -2.01485681      -2.77276755      -0.09146847      -0.06465003      -0.10179932
H       -2.10782797      -0.92476663      -1.61111627      -0.03959371       0.05267593       0.04739710
H       -0.81033622       0.99857402      -2.52188543       0.01696594       0.05925680       0.05420217
H       -0.02385994      -0.06013554      -3.71154846      -0.00313194       0.00875609       0.03274372
H       -1.75440982       0.20148114      -3.77125304      -0.00633493       0.03728560       0.00859478
47
Properties=species:S:1:pos:R:3:forces:R:3 charge=1 spin=1 energy=-20036.401926987055 free_energy=-20036.401926987055 stress="0.1562347103288899 -0.9007447162712166 -1.223469140101397 -0.9007447162712166 -1.2150723818446827 -1.8537136514650472 -1.223469140101397 -1.8537136514650472 -0.9145787536368973" pbc="F F F"
C        2.82144287       1.09066907       2.94740409       0.10224223      -0.06264969       0.15597898
N        2.13976641       1.33542796       1.69108046       0.40261465      -0.05158471       0.01220798
C        2.91444260       2.08697616       0.72415494       0.04338657       0.00711830      -0.08920283
C        0.86700034       0.95823620       1.50798874      -0.25549793       0.17194305       0.30070111
C        0.05529318       1.13401184       0.43778987      -0.05211532       0.40500683      -0.19861776
C       -1.41132027       1.24563094       0.63227173      -0.01662948       0.20568229       0.06336013
C       -2.07208796       2.31777000       0.01541357      -0.06604595      -0.16891991      -0.06009955
C       -3.41441836       2.56914306       0.25705052      -0.04980223      -0.07536307      -0.05037878
C       -4.13242962       1.75935127       1.12787144       0.02280823      -0.08168216       0.06459118
C       -3.48928757       0.70290769       1.76289024      -0.02659125      -0.03166411      -0.09285249
C       -2.14605116       0.44766582       1.51505873       0.03252298      -0.13012198      -0.08614577
H        3.71882389       0.48829399       2.79051842       0.01326517      -0.03435899       0.00424496
H        3.13133840       2.03126529       3.41457331      -0.07195895      -0.03661919      -0.09570687
H        2.17025652       0.56453902       3.64299892      -0.02146784       0.00261950      -0.07042365
H        2.28341029       2.47951211      -0.07101935       0.00571370      -0.04603016       0.07039294
H        3.70020458       1.46512044       0.28192491      -0.05225991       0.03594631      -0.02001040
H        3.40048675       2.93494395       1.21915352      -0.08829614      -0.12569419      -0.02323386
H        0.41202289       0.54077646       2.39899937       0.05960929      -0.03405931       0.13704668
H        0.44575197       1.69295994      -0.40796005      -0.02013613      -0.04118811      -0.06711226
H        0.03777030      -0.64561403      -0.70344594       0.66231859       2.35242629       1.61763370
H       -1.51799353       2.99058186      -0.63250976       0.01241931      -0.08831237       0.02610547
H       -3.89914804       3.40857599      -0.23055738       0.04295436      -0.07370718       0.05633955
H       -5.18049020       1.95050468       1.31908790       0.03871041       0.01446373      -0.00482367
H       -4.03618475       0.06542829       2.45131249       0.05595063       0.10192695      -0.06686874
H       -1.66366250      -0.37623954       2.03760620      -0.01892940       0.06141728      -0.05914248
C        2.42246769      -1.24106901      -1.39332224      -0.08233592       0.01642053       0.04111020
C        1.15502231      -1.87624009      -1.91997080      -0.26353437      -0.27992049      -0.12871079
N       -0.12288749      -1.44664456      -1.23405042      -0.27344760      -1.98614550      -1.33900249
C       -0.63545956      -2.50289250      -0.29022437      -0.04555987      -0.02710504      -0.28958446
C        0.34541223      -2.92452591       0.78118971      -0.02272075      -0.00342389      -0.00092596
C       -1.20349978      -1.09642212      -2.22194023       0.07694937      -0.23098418      -0.01349818
C       -0.88686151       0.08494117      -3.11325747      -0.01271439      -0.00047216       0.02933113
H        3.26894008      -1.67133092      -1.93266608      -0.06704739       0.04697977       0.04835486
H        2.56778863      -1.42931963      -0.33108106      -0.00856303       0.04285138       0.04455825
H        2.42190878      -0.16747395      -1.57155217       0.01368117       0.08544630       0.05798078
H        1.17931572      -2.95892727      -1.82890728       0.09557886      -0.08011092      -0.01603354
H        1.02860121      -1.65539890      -2.97339351       0.05541997       0.03473920      -0.08457182
H       -0.89722190      -3.33658882      -0.93845677      -0.07608685      -0.15845264       0.05014414
H       -1.55413908      -2.10856062       0.13881083       0.00805280       0.07003282       0.06177541
H        0.63300636      -2.08864050       1.41511107       0.02626576       0.07833055       0.04053857
H        1.24318576      -3.38893442       0.37475120      -0.00820171       0.02872865      -0.01377926
H       -0.14554252      -3.66987948       1.40743928       0.01787532       0.04062760       0.00659233
H       -1.34480583      -2.00643991      -2.79689452      -0.16418035      -0.09025712      -0.18239099
H       -2.10232437      -0.91186210      -1.63872267      -0.04148610       0.04820891       0.04856194
H       -0.77946163       1.00323452      -2.54024250       0.01591165       0.04629846       0.06132464
H       -0.00019671      -0.06183071      -3.72900814      -0.00442672       0.00386161       0.03544114
H       -1.72818541       0.21636725      -3.79326876       0.00578452       0.03775033       0.01880025
47
Properties=species:S:1:pos:R:3:forces:R:3 charge=1 spin=1 energy=-20036.411798087396 free_energy=-20036.411798087396 stress="1.5514859343231346 -0.8545562931242191 -1.2260985442428167 -0.8545562931242191 -0.45538572063348204 -1.8725214134121866 -1.2260985442428167 -1.8725214134121866 -0.3181034735453065" pbc="F F F"
C        2.85677731       1.09632298       2.94831373       0.04142316      -0.04068988       0.08460232
N        2.15802553       1.36256695       1.70274188       0.07648129      -0.13992873      -0.00593217
C        2.93185307       2.11350349       0.73095637      -0.02502332      -0.03878686      -0.03996794
C        0.87057118       0.99348603       1.53149514       0.15693125       0.18787968       0.29718107
C        0.05198910       1.17324490       0.46814534      -0.10083314       0.43014637      -0.16791391
C       -1.41694099       1.27156603       0.66463947      -0.01590643       0.13546468       0.01950390
C       -2.09791660       2.31361340       0.01761710      -0.07287849      -0.17702636      -0.04079754
C       -3.44887100       2.54001500       0.24405711      -0.02310847      -0.09204559      -0.02532819
C       -4.15516491       1.73480165       1.13032873       0.06052661      -0.07341571       0.04562479
C       -3.49200479       0.70746691       1.79474726       0.00319104      -0.00616429      -0.10993467
C       -2.14066399       0.47644425       1.56147079       0.00316555      -0.09984138      -0.09571449
H        3.74991130       0.49170629       2.76978875      -0.01703189      -0.01426529       0.00914418
H        3.17621166       2.03053298       3.42358996      -0.07344352      -0.06475030      -0.09544824
H        2.21130921       0.56254860       3.64434381      -0.00561876       0.01609645      -0.07663824
H        2.29655618       2.52057979      -0.05365584       0.00287349      -0.04850698       0.07100757
H        3.70535811       1.48567169       0.27429568      -0.06635304       0.04137642      -0.00944804
H        3.43384970       2.95131587       1.22793623      -0.09571964      -0.12961443      -0.02989993
H        0.42137217       0.56701767       2.42101719       0.10416335      -0.00827700       0.16468330
H        0.43705583       1.73955247      -0.37414144      -0.01940700      -0.04306063      -0.10815454
H        0.01658163      -0.65782201      -0.72109853       0.75811267       2.19237471       1.51566601
H       -1.55407417       2.98064795      -0.64598880      -0.00385307      -0.09522562       0.04632618
H       -3.94923095       3.35639164      -0.26825841       0.05715609      -0.09538756       0.07428887
H       -5.20950919       1.90704242       1.30862393       0.06458013       0.00658536      -0.00307609
H       -4.02917314       0.07428539       2.49542674       0.06157278       0.10867018      -0.08259486
H       -1.64545543      -0.32728782       2.10428948      -0.02808343       0.07754747      -0.07706955
C        2.42511670      -1.27151524      -1.38862763      -0.09349938       0.03190440       0.05424068
C        1.15607021      -1.89579264      -1.92851115      -0.18095756      -0.27307245      -0.15043449
N       -0.12470887      -1.46326152      -1.25617488      -0.27573943      -1.55155003      -1.05442560
C       -0.65169731      -2.50754429      -0.31073858      -0.09062330      -0.14443767      -0.24682553
C        0.31505067      -2.93734700       0.77257927      -0.00326856       0.01337778      -0.00997417
C       -1.19453115      -1.09459205      -2.24616275      -0.00972210      -0.27428910      -0.13624425
C       -0.86404159       0.08849905      -3.13342532       0.00947436      -0.00723875       0.04576170
H        3.27497957      -1.70713706      -1.91955266      -0.09594185       0.04795763       0.04932111
H        2.55901870      -1.46215300      -0.32489210      -0.01511554       0.04328289       0.02993398
H        2.43558546      -0.19687901      -1.56466244       0.00597842       0.06214213       0.06080418
H        1.17286796      -2.97937153      -1.84054965       0.08922781      -0.06643465      -0.01764729
H        1.04227216      -1.66989738      -2.98278045       0.04925520       0.02719936      -0.07058025
H       -0.91716090      -3.34209934      -0.95671958      -0.08445297      -0.16177993       0.06162119
H       -1.56969687      -2.10314990       0.11243369       0.02624232       0.06897640       0.04070562
H        0.60831101      -2.10410140       1.40909009       0.00654231       0.06674872       0.01289533
H        1.21194697      -3.41378490       0.37676026      -0.02511052       0.03370764      -0.01518229
H       -0.19114112      -3.67557321       1.39666793       0.02579693       0.06110593      -0.01823194
H       -1.34383005      -1.99994413      -2.82667611      -0.17837423      -0.08200943      -0.19081265
H       -2.09497210      -0.90162684      -1.66703381      -0.02094962       0.03491048       0.04611933
H       -0.74888199       1.00567923      -2.55835608       0.01150121       0.01634138       0.06027302
H        0.02372438      -0.06400706      -3.74724206      -0.02133216       0.00013201       0.04457925
H       -1.70269868       0.23038468      -3.81610766       0.02815144       0.02387024       0.04399329
47
Properties=species:S:1:pos:R:3:forces:R:3 charge=1 spin=1 energy=-20036.41751673416 free_energy=-20036.41751673416 stress="4.044616981984117 -0.5907298975242986 -1.060894915450447 -0.5907298975242986 1.5690326539422177 -1.4294625230316667 -1.060894915450447 -1.4294625230316667 1.1677630401749988" pbc="F F F"
C        2.89351992       1.10180797       2.95270940      -0.09825210       0.00826686      -0.10436010
N        2.17784915       1.39228458       1.71515893      -0.61682671      -0.29306701      -0.05445173
C        2.95225792       2.14182183       0.73487708      -0.17708211      -0.14862438       0.09993850
C        0.86768081       1.02958470       1.55357151       1.02819800       0.13899416       0.30885077
C        0.05043207       1.18913140       0.48414790      -0.26122546       0.73619914       0.03921071
C       -1.42257241       1.30252241       0.69952603       0.02911678      -0.09913459      -0.11173236
C       -2.12148402       2.31206154       0.02080819      -0.10545033      -0.18850170       0.01463452
C       -3.48229882       2.51143034       0.23130670       0.04562854      -0.13022324       0.04115171
C       -4.17744959       1.71055698       1.13296528       0.12043320      -0.05694091       0.01383525
C       -3.49544085       0.71217673       1.82597646       0.06522345       0.05589023      -0.13775223
C       -2.13545575       0.50739643       1.60809806      -0.07640280      -0.01950292      -0.12293875
H        3.78063840       0.49482620       2.74836945      -0.04597714       0.00984464       0.03247072
H        3.22056720       2.03075842       3.43311781      -0.05816302      -0.09488732      -0.06963251
H        2.25063218       0.55969646       3.64585357       0.02622367       0.03682699      -0.07847737
H        2.30987876       2.56006282      -0.03807243       0.01583896      -0.04132305       0.06540475
H        3.71044334       1.50439514       0.26670702      -0.05708205       0.05085904      -0.01321529
H        3.46792794       2.96836979       1.23568522      -0.08274507      -0.11426277      -0.05207783
H        0.42805062       0.58801646       2.44180589       0.15019473       0.06285448       0.15822388
H        0.42829715       1.79141385      -0.33625524      -0.01080533      -0.11460880      -0.18474199
H       -0.01446436      -0.64358326      -0.72053094       0.83049923       1.26389623       0.91544694
H       -1.58771082       2.96978990      -0.66082547      -0.02064530      -0.09491318       0.06181499
H       -3.99762599       3.30288761      -0.30564250       0.06547729      -0.10648518       0.08539978
H       -5.23783549       1.86382958       1.29908546       0.10312185      -0.00538289      -0.00828855
H       -4.02382270       0.08332935       2.53735947       0.06361276       0.10607011      -0.09261093
H       -1.62843412      -0.27758513       2.16742150      -0.03392555       0.08350435      -0.08768799
C        2.42686689      -1.30348268      -1.38477289      -0.10153763       0.04820569       0.07346861
C        1.15377777      -1.91853033      -1.93758581       0.11660048      -0.12687491      -0.13334206
N       -0.12161442      -1.47146920      -1.27205057      -0.38465688      -0.78367734      -0.56459391
C       -0.66607682      -2.51132237      -0.33602881      -0.15079306      -0.30642566      -0.01295052
C        0.28417781      -2.95072316       0.76393998       0.03603790       0.05815159      -0.02870472
C       -1.18161153      -1.09584580      -2.26780584      -0.20498630      -0.22260138      -0.34907505
C       -0.84207290       0.09107969      -3.15347812       0.06041832      -0.01302064       0.07465097
H        3.28253441      -1.74208960      -1.90570551      -0.13791159       0.04647811       0.05122053
H        2.54914248      -1.49500014      -0.31799277      -0.03013390       0.04553503      -0.02834266
H        2.44712008      -0.22658461      -1.55810271      -0.01061666      -0.00203328       0.06423348
H        1.17209130      -3.00521407      -1.85655038      -0.00381393       0.03054369       0.02326399
H        1.05907599      -1.68694140      -2.99476091      -0.00210489       0.02258986       0.00953620
H       -0.93978365      -3.35531518      -0.97148591      -0.02935009      -0.01969090       0.04488791
H       -1.58326590      -2.09847134       0.08485117       0.05789956       0.06015658       0.00208591
H        0.58359065      -2.11907829       1.40336973      -0.02649500       0.03018391      -0.03882244
H        1.18196323      -3.43788280       0.37959411      -0.06393133       0.04409788      -0.00661043
H       -0.23592723      -3.68147860       1.38783123       0.03219384       0.09253148      -0.06910692
H       -1.34935745      -1.99385023      -2.86153670      -0.08992746      -0.01571106      -0.06925322
H       -2.08555415      -0.89188244      -1.69464552       0.03144922       0.01108652       0.03831634
H       -0.71877346       1.00750544      -2.57567723       0.00251211      -0.03371131       0.04710576
H        0.04819176      -0.06534922      -3.76533431      -0.06246351      -0.00082120       0.06472610
H       -1.67807538       0.24494421      -3.83929660       0.06262513      -0.01034098       0.08889135
47
Properties=species:S:1:pos:R:3:forces:R:3 charge=1 spin=1 energy=-20036.214836957435 free_energy=-20036.214836957435 stress="7.793202515035498 -0.15314550681591904 -0.8446493806669325 -0.15314550681591904 4.942355387113392 -0.696920564108767 -0.8446493806669325 -0.696920564108767 3.6682617122003927" pbc="F F F"
C        2.93133650       1.10631543       2.96080490      -0.32635525       0.08769181      -0.42179641
N        2.19997127       1.42363395       1.72719614      -1.70894802      -0.51008588      -0.14085048
C        2.97603965       2.17144062       0.73391289      -0.42646980      -0.33303127       0.34095070
C        0.85585299       1.06436609       1.57139627       2.42052031      -0.04338979       0.37316671
C        0.05179852       1.17095468       0.47973022      -0.54961932       1.50542724       0.33059785
C       -1.42793401       1.33740078       0.73584367       0.12124913      -0.55647647      -0.35125586
C       -2.14173786       2.31200597       0.02336353      -0.18016677      -0.20588334       0.11340575
C       -3.51376987       2.48261855       0.21779440       0.16577092      -0.19262841       0.16622846
C       -4.19841898       1.68619768       1.13558054       0.21269374      -0.02997856      -0.03456174
C       -3.49909297       0.71604730       1.85636652       0.16467957       0.16544844      -0.18017735
C       -2.13001487       0.53920833       1.65423848      -0.21773022       0.12612000      -0.18176879
H        3.81033026       0.49707429       2.72616065      -0.07197682       0.03823569       0.07909145
H        3.26304349       2.03165879       3.44244595      -0.02007362      -0.12240559      -0.00891091
H        2.28680312       0.55508454       3.64679113       0.07831409       0.06818955      -0.07661095
H        2.32210435       2.59676336      -0.02554381       0.05404412      -0.02488086       0.05642598
H        3.71495619       1.52002876       0.25745359      -0.01984309       0.06790284      -0.03501412
H        3.50228556       2.98525819       1.24140272      -0.04250838      -0.07388359      -0.09392348
H        0.43115955       0.60135160       2.45971430       0.19878554       0.19545367       0.10277747
H        0.41980032       1.84729662      -0.29467035      -0.02969519      -0.36512250      -0.21874039
H       -0.05804007      -0.59967772      -0.70040102       1.05293012       0.05790989       0.15104248
H       -1.61800577       2.95593304      -0.67941775      -0.03729365      -0.09207471       0.07325498
H       -4.04317862       3.24708713      -0.34361407       0.06420176      -0.10308614       0.08550750
H       -5.26437731       1.82101402       1.29129928       0.15289478      -0.01982544      -0.02383595
H       -4.01973943       0.09177464       2.57698701       0.06134313       0.09268910      -0.09505385
H       -1.61232526      -0.22902037       2.22563450      -0.03123046       0.07164755      -0.08617195
C        2.42777246      -1.33617635      -1.38067638      -0.10057472       0.06776243       0.10289295
C        1.14693110      -1.94342028      -1.94589190       0.70491910       0.18180476      -0.08710393
N       -0.11165320      -1.46392451      -1.27642424      -0.83645314      -0.32620454      -0.30085316
C       -0.67835373      -2.51192792      -0.36600998      -0.22986180      -0.51229483       0.47370017
C        0.25257771      -2.96384423       0.75619603       0.10059533       0.14011584      -0.06122945
C       -1.16373396      -1.09885421      -2.28449253      -0.53972483      -0.03572384      -0.66756487
C       -0.82119776       0.09397159      -3.17265213       0.14897369      -0.01366583       0.11613649
H        3.29202362      -1.77514236      -1.88979733      -0.19717096       0.04219360       0.05460955
H        2.53822876      -1.52690507      -0.30879950      -0.05394125       0.05065546      -0.14393523
H        2.45667011      -0.25535160      -1.55062178      -0.03825264      -0.11795102       0.06850112
H        1.17784274      -3.03636116      -1.87671190      -0.21117926       0.24159002       0.12272047
H        1.07963573      -1.70519357      -3.00865477      -0.11521988       0.02159928       0.18386936
H       -0.96657308      -3.37605124      -0.98106786       0.11890768       0.32423443      -0.00892053
H       -1.59454302      -2.09293256       0.05741909       0.10222296       0.04193893      -0.05457589
H        0.55908245      -2.13272317       1.39912357      -0.07524763      -0.03749021      -0.11850932
H        1.15333563      -3.46011701       0.38381860      -0.13097422       0.06214816       0.01359084
H       -0.27968208      -3.68699841       1.38221598       0.03612602       0.13589337      -0.15118918
H       -1.36309709      -1.98663892      -2.90090061       0.14336878       0.12934637       0.23610114
H       -2.07385354      -0.88045048      -1.72015366       0.12504809      -0.02594040       0.02251704
H       -0.68931224       1.01031042      -2.59165702      -0.01171374      -0.10616900       0.01813530
H        0.07349388      -0.06454183      -3.78236896      -0.13628477       0.00242450       0.10000685
H       -1.65444123       0.26145664      -3.86236241       0.11092055      -0.07023104       0.15732317
