47
Properties=species:S:1:pos:R:3:forces:R:3 Converted=T from=T ColabReaction_Et3N_reactant.gjf=T energy=5.114705488683014e-29 pbc="F F F"
C        2.51526196       1.20479245       3.22643132       0.00000000      -0.00000000      -0.00000000
N        1.95712196       1.35976545       1.86738232      -0.00000000      -0.00000000      -0.00000000
C        2.88421196       1.98223645       0.90478032       0.00000000       0.00000000      -0.00000000
C        0.74993596       0.97148945       1.59042532      -0.00000000       0.00000000      -0.00000000
C        0.01214296       1.05933345       0.31220132       0.00000000       0.00000000       0.00000000
C       -1.41949104       1.51010745       0.59214932       0.00000000       0.00000000      -0.00000000
C       -1.75059504       2.86901845       0.52226332      -0.00000000      -0.00000000       0.00000000
C       -3.05353404       3.29085645       0.79108632       0.00000000       0.00000000      -0.00000000
C       -4.03087004       2.35947845       1.14551832      -0.00000000       0.00000000       0.00000000
C       -3.70447404       1.00383245       1.22516932       0.00000000       0.00000000      -0.00000000
C       -2.40404804       0.58014145       0.94957832      -0.00000000      -0.00000000       0.00000000
H        3.39886296       0.56286945       3.17917732       0.00000000      -0.00000000       0.00000000
H        2.80500596       2.18876545       3.60498132       0.00000000       0.00000000       0.00000000
H        1.77001696       0.76159545       3.88689332      -0.00000000      -0.00000000       0.00000000
H        2.45475796       2.00564945      -0.09267968       0.00000000       0.00000000       0.00000000
H        3.80681296       1.39648045       0.88644232       0.00000000       0.00000000      -0.00000000
H        3.11171396       2.99778445       1.24091832      -0.00000000      -0.00000000      -0.00000000
H        0.21268996       0.52137545       2.42369932      -0.00000000      -0.00000000       0.00000000
H        0.49777496       1.72495745      -0.40491768      -0.00000000      -0.00000000       0.00000000
H        0.01888996       0.04007645      -0.15349368       0.00000000      -0.00000000      -0.00000000
H       -0.99478504       3.59980345       0.24293032      -0.00000000      -0.00000000       0.00000000
H       -3.30337104       4.34547045       0.72325032       0.00000000      -0.00000000       0.00000000
H       -5.04442504       2.68777845       1.35517332      -0.00000000       0.00000000       0.00000000
H       -4.46379204       0.27508845       1.49305132       0.00000000      -0.00000000       0.00000000
H       -2.15880804      -0.47829955       0.99987532      -0.00000000       0.00000000       0.00000000
C        2.30799196      -1.09163455      -1.86252068       0.00000000       0.00000000      -0.00000000
C        1.16654696      -2.06496755      -2.16155668       0.00000000      -0.00000000      -0.00000000
N       -0.04772104      -1.83313055      -1.33500068      -0.00000000      -0.00000000       0.00000000
C       -0.24615204      -2.91028655      -0.34429968       0.00000000       0.00000000       0.00000000
C        0.86064396      -3.00745655       0.70537732       0.00000000       0.00000000       0.00000000
C       -1.25989404      -1.69042155      -2.17405168      -0.00000000      -0.00000000       0.00000000
C       -1.29293204      -0.40440855      -2.99838168       0.00000000       0.00000000      -0.00000000
H        3.17980896      -1.32047855      -2.48589368       0.00000000       0.00000000      -0.00000000
H        2.62070896      -1.15159455      -0.81351168       0.00000000       0.00000000       0.00000000
H        2.00377396      -0.06026055      -2.07674468       0.00000000       0.00000000      -0.00000000
H        1.51668396      -3.09793355      -2.02749268      -0.00000000       0.00000000       0.00000000
H        0.90137896      -1.97920255      -3.22021868       0.00000000       0.00000000      -0.00000000
H       -0.35386304      -3.88915755      -0.84598268       0.00000000       0.00000000       0.00000000
H       -1.19956604      -2.71801655       0.16241332       0.00000000       0.00000000       0.00000000
H        0.97431396      -2.06473955       1.25590632      -0.00000000      -0.00000000      -0.00000000
H        1.83058396      -3.25988055       0.26571632      -0.00000000      -0.00000000       0.00000000
H        0.61636796      -3.79178455       1.42942132       0.00000000       0.00000000      -0.00000000
H       -1.37462704      -2.56379955      -2.84037468       0.00000000       0.00000000       0.00000000
H       -2.12507504      -1.69736955      -1.50176668      -0.00000000      -0.00000000       0.00000000
H       -1.29141204       0.48077045      -2.35320868      -0.00000000       0.00000000       0.00000000
H       -0.44717504      -0.32757955      -3.68993668       0.00000000      -0.00000000      -0.00000000
H       -2.20739304      -0.37711455      -3.60017968       0.00000000       0.00000000       0.00000000
47
Properties=species:S:1:pos:R:3:forces:R:3 Converted=T from=T ColabReaction_Et3N_reactant.gjf=T energy=0.0019991686754341916 pbc="F F F"
C        2.55343225       1.19638027       3.20261298      -0.00005020       0.00038141      -0.00145158
N        1.97978731       1.36771108       1.85387915       0.00082848       0.00125512      -0.00352061
C        2.89436986       2.00016053       0.88835127      -0.00106621      -0.00188666      -0.00193746
C        0.76373823       0.97918501       1.59019673      -0.02539540       0.00459913      -0.01606440
C        0.02004071       1.06548285       0.32548347      -0.01265126       0.00720659       0.00155125
C       -1.42082120       1.48848342       0.60295593       0.01048789       0.01092756       0.01109421
C       -1.78766513       2.83565022       0.47187016      -0.00659480      -0.06434989       0.01264383
C       -3.09869757       3.24151303       0.73254440       0.04056048      -0.12957801       0.01239103
C       -4.04694998       2.30286124       1.14360522      -0.01840910      -0.00254713       0.00479318
C       -3.68847545       0.96055999       1.28887321       0.05120636       0.05092925      -0.02238809
C       -2.38059704       0.55094891       1.02173951       0.00942417       0.13466507      -0.02643562
H        3.43869131       0.55506956       3.14031383      -0.00229099       0.00627595       0.00175245
H        2.84728957       2.17515389       3.59269511       0.00229099      -0.00627595      -0.00175245
H        1.81757497       0.74282941       3.86740344       0.00722135       0.00024910       0.00896593
H        2.43926901       2.06380733      -0.09866855       0.01274856      -0.00026359       0.01064936
H        3.80708637       1.40045968       0.82930143      -0.00486055       0.01179547       0.00305797
H        3.14681830       3.00278449       1.24470277       0.00535569      -0.00982894      -0.00235902
H        0.23469461       0.52827327       2.42834870      -0.00156813       0.00063610      -0.00437787
H        0.48905427       1.73500723      -0.39905481      -0.00551347      -0.00165473      -0.00582684
H        0.01188837      -0.01911816      -0.20331816       0.00000000       0.00000000       0.00000000
H       -1.05422358       3.57234825       0.15006170      -0.02521182      -0.08924066       0.02205151
H       -3.37056979       4.28662507       0.61364096      -0.01136799      -0.15238875       0.03004179
H       -5.06625514       2.61870031       1.34726313      -0.00276512      -0.04760099       0.00909287
H       -4.42345774       0.22450995       1.60218659       0.00787036       0.12099254      -0.02322142
H       -2.11294024      -0.49970365       1.12533977      -0.03024932       0.15570201      -0.01875004
C        2.32407695      -1.10927534      -1.81677058      -0.01390106      -0.00832685      -0.01370774
C        1.16905631      -2.05665948      -2.14526150       0.00278285       0.00627921       0.00036356
N       -0.05629293      -1.80213166      -1.33131802       0.00236152      -0.00922106      -0.00075799
C       -0.28972373      -2.87848098      -0.34265602       0.00333805       0.00052348       0.01709255
C        0.80898680      -3.00401271       0.71340957      -0.01536857      -0.00609337      -0.01057561
C       -1.25764721      -1.63776007      -2.18583445      -0.00255034       0.00789190      -0.00310746
C       -1.25058070      -0.35508947      -3.01678631      -0.00135250      -0.02257430       0.00059568
H        3.19607616      -1.36060660      -2.43073259       0.01184959       0.00258032      -0.00306722
H        2.62049962      -1.18514580      -0.76455416      -0.00298567       0.00641891      -0.00847377
H        2.04900892      -0.07113990      -2.03030259      -0.00020523      -0.02117754       0.00687632
H        1.48804881      -3.09931172      -2.01238609      -0.00877355       0.01735887       0.00194648
H        0.91659733      -1.95236712      -3.20467711       0.01421454       0.00644441       0.01707576
H       -0.41691573      -3.84737081      -0.85603442       0.00408724       0.00281181       0.00523263
H       -1.24310829      -2.66118238       0.15461212       0.01173167      -0.00267392      -0.00611903
H        0.93950770      -2.06816439       1.27094892       0.00125418      -0.00568377      -0.00202113
H        1.77584580      -3.28056959       0.28227149      -0.00851345       0.00333193       0.00182603
H        0.53429275      -3.78643938       1.42878055       0.00502664       0.00255667       0.00183537
H       -1.37583763      -2.51333114      -2.84666838       0.00087831       0.01513380      -0.00119288
H       -2.12932446      -1.62218005      -1.52201132       0.00259356      -0.00004636      -0.00197512
H       -1.23771568       0.53310999      -2.37780502      -0.00281861      -0.00259849      -0.00381592
H       -0.39814949      -0.30062557      -3.70242287      -0.00622792      -0.00025743       0.00305206
H       -2.15978360      -0.31694902      -3.62612915       0.00257874       0.00732178      -0.00108259
47
Properties=species:S:1:pos:R:3:forces:R:3 Converted=T from=T ColabReaction_Et3N_reactant.gjf=T energy=0.0011122358572584756 pbc="F F F"
C        2.59167753       1.18763818       3.17908785       0.01059561      -0.00764820      -0.00094674
N        2.00249084       1.37432692       1.84100008       0.00097893       0.00135404      -0.00049254
C        2.90245692       2.01796336       0.87259939       0.00044636       0.00072410      -0.00065560
C        0.77544452       0.98749480       1.58917672      -0.01853212       0.00218090      -0.01143245
C        0.02613920       1.07255031       0.33980716       0.00173358       0.00501101      -0.00529746
C       -1.42051454       1.46751779       0.61522751      -0.01937095      -0.00057240       0.01825333
C       -1.82378753       2.79698163       0.42187747      -0.00193746      -0.03169752       0.00772279
C       -3.14201291       3.18285969       0.67483138       0.01297207      -0.04983124       0.00824199
C       -4.06526841       2.24582973       1.14210436       0.00132791      -0.01305449       0.00249443
C       -3.67042824       0.92202737       1.35138691       0.01904281       0.02036977      -0.01005462
C       -2.35535291       0.53230770       1.09172408       0.00885717       0.04842487      -0.01426321
H        3.47741088       0.54829190       3.09994546      -0.01073152       0.00805857       0.00199575
H        2.88937033       2.16157135       3.57877898      -0.00105733      -0.00287673       0.00009062
H        1.86470241       0.72409314       3.84665137       0.00705939       0.00108683       0.00970925
H        2.42330646       2.11964629      -0.09956823       0.03436506       0.00662332       0.00514892
H        3.80379312       1.40656250       0.77104296       0.00000000       0.00000000       0.00000000
H        3.18255086       3.00657330       1.24726512      -0.00097893      -0.00135404       0.00049254
H        0.25591376       0.53539600       2.43266451       0.00041013       0.00140984      -0.00416553
H        0.48164540       1.74542179      -0.39048735      -0.01778589      -0.00865692      -0.01031772
H        0.00488445      -0.07788194      -0.25308673       0.00000000       0.00000000       0.00000000
H       -1.10996825       3.53340402       0.05795508      -0.02194823      -0.05186809       0.01792598
H       -3.44073371       4.21407280       0.50662965      -0.00254177      -0.11659632       0.02840524
H       -5.09018539       2.54629048       1.34019332       0.02187242      -0.03253453       0.00190110
H       -4.38473740       0.18599772       1.70997271       0.01089967       0.09011831      -0.02407166
H       -2.06016913      -0.50491568       1.24671487      -0.03567691       0.13132891      -0.02068439
C        2.33828013      -1.12965235      -1.77193731      -0.01212817      -0.00710296      -0.01311540
C        1.16813087      -2.04712716      -2.12706809       0.00836847      -0.00648181       0.00373589
N       -0.06372800      -1.76913872      -1.32654300      -0.00023434      -0.01269536      -0.00172774
C       -0.33143358      -2.84409425      -0.34340271       0.00123382      -0.00027463       0.00038487
C        0.75526510      -3.00022438       0.71985453      -0.00922649      -0.00926993      -0.00574205
C       -1.25102989      -1.58495600      -2.19666170      -0.00596535       0.00090308       0.00404000
C       -1.20818151      -0.30757923      -3.03393337      -0.00893911      -0.01264403      -0.00098164
H        3.21057698      -1.40145031      -2.37614049       0.01625631       0.01185293       0.00377342
H        2.61657554      -1.21965027      -0.71648904       0.00072402       0.00502883      -0.01674447
H        2.09178876      -0.08425674      -1.98338259       0.00838912      -0.01896349       0.00447402
H        1.45858726      -3.09766191      -1.99804590      -0.01200860       0.01732147       0.00405877
H        0.93188933      -1.92679027      -3.18760557       0.01147166       0.00620623       0.01827071
H       -0.47635323      -3.80316608      -0.86699049       0.00752879       0.00490832       0.00970026
H       -1.28271108      -2.60405546       0.14596205      -0.00119400      -0.00081780       0.00144232
H        0.90307588      -2.07263438       1.28503253       0.00754929      -0.01137263      -0.00916335
H        1.71799820      -3.30027434       0.29587747      -0.01094353       0.01082951       0.01070875
H        0.45194274      -3.77949758       1.42705441       0.00655007      -0.00531532       0.00848614
H       -1.37618312      -2.46221727      -2.85244384       0.00136646       0.01752497      -0.00147616
H       -2.12907272      -1.54734621      -1.54200678       0.00496589      -0.00014679      -0.00457037
H       -1.18326237       0.58336555      -2.40043276      -0.00703795      -0.00869706      -0.01297932
H       -0.34961444      -0.27555540      -3.71299980      -0.00201262       0.00218557       0.00102744
H       -2.11116912      -0.25805837      -3.65119218      -0.00471376       0.01702090      -0.00360208
47
Properties=species:S:1:pos:R:3:forces:R:3 Converted=T from=T ColabReaction_Et3N_reactant.gjf=T energy=0.000793274115175406 pbc="F F F"
C        2.62986161       1.17869296       3.15578593       0.00362232      -0.00260424      -0.00039582
N        2.02520591       1.38029939       1.82840910       0.00419009       0.00477257      -0.00587842
C        2.90986279       2.03566113       0.85708734      -0.00164025       0.00404546      -0.00596365
C        0.78603595       0.99602940       1.58776619      -0.00202453      -0.00180226       0.00337431
C        0.03091648       1.08038924       0.35462316      -0.00494102       0.01003868      -0.00684502
C       -1.42003154       1.44789864       0.62827259      -0.02809163      -0.00407082       0.01382289
C       -1.85972722       2.75438793       0.37244901       0.00528446       0.00557601      -0.00308511
C       -3.18472199       3.11851550       0.61790327       0.00260175       0.01976723      -0.00662587
C       -4.08362592       2.18792799       1.14066014       0.01476755      -0.01851675       0.00149564
C       -3.65128205       0.88756940       1.41294348      -0.00494154       0.00586820      -0.00045382
C       -2.32918952       0.52012248       1.16031669       0.00812492      -0.03039023       0.00654126
H        3.51548496       0.54197948       3.05901240      -0.00198206      -0.00144121       0.00635946
H        2.93123064       2.14791455       3.56417407      -0.00057948      -0.00239880       0.00619193
H        1.91158888       0.70538684       3.82547021       0.00336182       0.00475610      -0.00086151
H        2.40770067       2.17423897      -0.09733740       0.04515157       0.00977500       0.00661761
H        3.79812399       1.41423789       0.71243961       0.00000000       0.00000000       0.00000000
H        3.21848604       3.00899860       1.24906054      -0.00548730      -0.00748958       0.00266414
H        0.27667142       0.54258695       2.43673183       0.00273381       0.00142381      -0.00261831
H        0.47488717       1.75579853      -0.38061908      -0.02482980      -0.01344788      -0.01407939
H       -0.00209925      -0.13625436      -0.30268261       0.00000000       0.00000000       0.00000000
H       -1.16522572       3.48720568      -0.03300690      -0.02629053      -0.00997682       0.01004992
H       -3.51189143       4.13191069       0.40143771       0.00543947      -0.01972221       0.00446336
H       -5.11397045       2.47171301       1.33336048       0.01785651      -0.00401228      -0.00363640
H       -4.34569183       0.15574293       1.81630828       0.00681383       0.01031880      -0.00489867
H       -2.00494332      -0.49921738       1.36570250      -0.01913995       0.03953124      -0.00623853
C        2.35126142      -1.15131529      -1.72785738       0.00426486      -0.00064939      -0.00754820
C        1.16579719      -2.03694033      -2.10798245       0.03465356      -0.01319664       0.00808583
N       -0.07040687      -1.73527036      -1.32129229      -0.00253338      -0.01577082      -0.00666055
C       -0.37208716      -2.80854549      -0.34517573       0.00636426      -0.00933408       0.01361443
C        0.70055939      -2.99643496       0.72544638      -0.00490453      -0.00115022      -0.00130267
C       -1.24245676      -1.53202684      -2.20706966      -0.01580911       0.00212901      -0.00624574
C       -1.16583078      -0.26123831      -3.05043852      -0.01973131       0.00139957      -0.00625150
H        3.22403488      -1.44241036      -2.32183039       0.01789351       0.02046716       0.01091988
H        2.61076869      -1.25442957      -0.66932430       0.01885830       0.00215125      -0.01657892
H        2.13339525      -0.09895535      -1.93621284       0.01307866      -0.01701005      -0.00234794
H        1.42865690      -3.09423481      -1.98420066      -0.01005495       0.01203854       0.00416169
H        0.94728791      -1.90181585      -3.16964514       0.00337716       0.00343978       0.01012397
H       -0.53384674      -3.75788338      -0.87840656      -0.00619597      -0.00557110       0.00861192
H       -1.32017050      -2.54695700       0.13683055      -0.00850688      -0.00552498       0.00992514
H        0.86596807      -2.07779536       1.29849780       0.00926622      -0.01451624      -0.01157927
H        1.65852331      -3.31939317       0.30810391      -0.00763239       0.01157932       0.01480694
H        0.36979440      -3.77162328       1.42459051       0.00469448      -0.01291466       0.01712364
H       -1.37611708      -2.41076497      -2.85800726      -0.00328958       0.01080833      -0.00265323
H       -2.12646498      -1.47286748      -1.56195525      -0.01123695       0.00198249      -0.00896540
H       -1.12859649       0.63238875      -2.42214054      -0.01091530      -0.00423762      -0.02111603
H       -0.30163440      -0.25140190      -3.72248004      -0.00784691       0.00928366      -0.00386274
H       -2.06209190      -0.19982114      -3.67571870      -0.00379377       0.02459670      -0.00226123
47
Properties=species:S:1:pos:R:3:forces:R:3 Converted=T from=T ColabReaction_Et3N_reactant.gjf=T energy=0.0013206153538448738 pbc="F F F"
C        2.66790796       1.16964549       3.13262406       0.00042146      -0.00130231       0.00417608
N        2.04787962       1.38608421       1.81589922       0.00834354       0.00271694      -0.00445067
C        2.91752319       2.05327902       0.84152951      -0.00086489       0.00775186      -0.01674835
C        0.79618991       1.00453350       1.58623058       0.00170483      -0.00230481       0.00455913
C        0.03484252       1.08885538       0.36959356      -0.01155586       0.00980391      -0.00854026
C       -1.42027956       1.43002540       0.64159507      -0.03655181      -0.01040864       0.00768972
C       -1.89596192       2.70890460       0.32371348       0.00059526       0.01408665      -0.00517605
C       -3.22762721       3.05096698       0.56178132      -0.00380892       0.01848756      -0.00563446
C       -4.10064457       2.12887779       1.13907801       0.01774209       0.00113693      -0.00525777
C       -3.63174955       0.85658754       1.47367633      -0.00621221      -0.00037791       0.00187227
C       -2.30277676       0.51150823       1.22801878       0.00649829      -0.02495318       0.00714918
H        3.55323749       0.53576534       3.01810087       0.00232788      -0.00544125       0.00780365
H        2.97287162       2.13412994       3.54948307       0.00139678      -0.00158824       0.01196420
H        1.95837377       0.68669377       3.80438657       0.00226147       0.00395795       0.00339965
H        2.39299307       2.22834019      -0.09341138       0.03386782       0.00820600       0.00467975
H        3.79098715       1.42308523       0.65402812       0.00000000       0.00000000       0.00000000
H        3.25436164       3.01002893       1.25040531      -0.00566493      -0.00697678       0.00338520
H        0.29717385       0.54975288       2.44059641       0.00957384      -0.00235490       0.00508230
H        0.46837350       1.76589233      -0.37041776      -0.01925994      -0.01168492      -0.01581412
H       -0.00905326      -0.19429062      -0.35206285       0.00000000       0.00000000       0.00000000
H       -1.22198967       3.43669605      -0.12253903      -0.02844965       0.02809000      -0.00218255
H       -3.58269894       4.04306787       0.29764775       0.00749174       0.02682346      -0.01183307
H       -5.13621678       2.39575008       1.32642305       0.01829559       0.00874164      -0.00820650
H       -4.30521668       0.13103324       1.92106655       0.01287240      -0.02765265       0.00648688
H       -1.95027123      -0.48639829       1.48333261      -0.01102478      -0.03475731       0.01559579
C        2.36348119      -1.17327481      -1.68433641       0.01789907       0.00541453      -0.00411911
C        1.16336925      -2.02645720      -2.08868852       0.03257447      -0.02032244      -0.00083078
N       -0.07658643      -1.70127414      -1.31596745      -0.00435808      -0.01604307      -0.00821484
C       -0.41221136      -2.77274933      -0.34710087       0.00270017      -0.01945284       0.02168573
C        0.64560998      -2.99283047       0.73069441      -0.00292534       0.00192082       0.00934045
C       -1.23353155      -1.47899739      -2.21737705      -0.02236435       0.00325335      -0.01451470
C       -1.12356070      -0.21558035      -3.06670786      -0.01529852       0.00493249      -0.00931274
H        3.23681508      -1.48317802      -2.26763537       0.03523141       0.02835422       0.01152338
H        2.60427610      -1.28902586      -0.62298472       0.02948590       0.00115228      -0.01335556
H        2.17468383      -0.11474782      -1.88894389       0.02069931      -0.00546362      -0.00427136
H        1.39849355      -3.08992876      -1.97064077      -0.00457346       0.00632386       0.00079622
H        0.96281628      -1.87699090      -3.15126526      -0.00245666       0.00017859       0.00285346
H       -0.59053171      -3.71238081      -0.89001200      -0.01951985      -0.01382273       0.01227257
H       -1.35673776      -2.49007195       0.12747146      -0.01271238      -0.00783306       0.01433389
H        0.82880568      -2.08336412       1.31160762       0.00836171      -0.01363372      -0.01077428
H        1.59840755      -3.33819526       0.31995604       0.00314124       0.00149130       0.02375160
H        0.28810823      -3.76326898       1.42160121       0.00259033      -0.01464582       0.01944425
H       -1.37589941      -2.35916727      -2.86354274      -0.00961279       0.00299276      -0.00441124
H       -2.12292664      -1.39873650      -1.58192947      -0.02425558       0.00413226      -0.01192583
H       -1.07404746       0.68077874      -2.44362393      -0.01245325       0.01068488      -0.01870672
H       -0.25417035      -0.22753281      -3.73141039      -0.00944381       0.01176996      -0.00730857
H       -2.01289251      -0.14184108      -3.69994324      -0.01270956       0.02861602      -0.00825582
47
Properties=species:S:1:pos:R:3:forces:R:3 Converted=T from=T ColabReaction_Et3N_reactant.gjf=T energy=0.001978360496098146 pbc="F F F"
C        2.70585601       1.16054625       3.10949351       0.00367181      -0.00035821       0.00436797
N        2.07040814       1.39168905       1.80351404       0.00777084       0.00143242      -0.00352737
C        2.92549224       2.07085974       0.82593491       0.00961846       0.00025980      -0.00256140
C        0.80599387       1.01301232       1.58457214       0.00464465      -0.00246058       0.00511523
C        0.03837158       1.09780900       0.38479077      -0.01323057       0.00092726      -0.01014259
C       -1.42109179       1.41373677       0.65507822      -0.02926588      -0.00912759      -0.00106114
C       -1.93241138       2.66090724       0.27573139      -0.00129615       0.02549727      -0.01043924
C       -3.27067730       2.98050106       0.50661358      -0.01554246       0.05545399      -0.01953496
C       -4.11654183       2.06874596       1.13747615       0.01576819       0.00273343      -0.00552697
C       -3.61208320       0.82861263       1.53352533      -0.00771977      -0.01867558       0.01027340
C       -2.27638835       0.50593058       1.29478171       0.00656156      -0.05210497       0.02056248
H        3.59072178       0.52965156       2.97710968       0.00725844      -0.00775675       0.01072580
H        3.01433072       2.12026045       3.53465132       0.00302722      -0.00108127       0.01620969
H        2.00509897       0.66796433       3.78333186      -0.00011159       0.00212822       0.00805966
H        2.37916392       2.28208741      -0.08820912      -0.00818957       0.00521174      -0.01851674
H        3.78274190       1.43299592       0.59588696       0.00193220      -0.00618635      -0.00257148
H        3.29023284       3.00986738       1.25134597      -0.00403800       0.00608219       0.00701380
H        0.31739869       0.55692384       2.44422756       0.01238404      -0.00402194       0.00867534
H        0.46219376       1.77576390      -0.36000429      -0.00175463      -0.00496506      -0.01188440
H       -0.01599359      -0.25207660      -0.40132791       0.00000000       0.00000000       0.00000000
H       -1.27989798       3.38230846      -0.21054529      -0.02506006       0.06463588      -0.02037139
H       -3.65303064       3.94820506       0.19554415       0.00192849       0.07464220      -0.03276444
H       -5.15718517       2.31844228       1.31954801       0.01269295       0.02280489      -0.01336870
H       -4.26382906       0.11128586       2.02407155       0.02076793      -0.06221670       0.02103664
H       -1.89636428      -0.46734989       1.59933022      -0.00181811      -0.09285428       0.04023081
C        2.37501213      -1.19543677      -1.64111999       0.02411532       0.00301073      -0.00595778
C        1.16077719      -2.01562514      -2.06924470       0.01989642      -0.00480813      -0.00756814
N       -0.08228323      -1.66717697      -1.31055236      -0.00359790      -0.01545829      -0.00644838
C       -0.45179180      -2.73664066      -0.34925532      -0.01816682      -0.02027628       0.01370273
C        0.59049636      -2.98929117       0.73567113      -0.00041515      -0.01148581       0.01312667
C       -1.22428300      -1.42590669      -2.22748014      -0.02668467      -0.00001216      -0.01476867
C       -1.08127899      -0.17041635      -3.08274044      -0.01119463       0.01232284      -0.01365194
H        3.24858707      -1.52400884      -2.21362164       0.04770777       0.03135250       0.01075935
H        2.59706162      -1.32340956      -0.57723355       0.03414903      -0.00129999      -0.00654093
H        2.21568203      -0.13147215      -1.84157556       0.02427556       0.01168481      -0.00736565
H        1.36809637      -3.08495783      -1.95727685       0.00107953      -0.02202491       0.00169845
H        0.97847873      -1.85225722      -3.13260190      -0.00384237       0.00004906      -0.00158017
H       -0.64650306      -3.66658063      -0.90187347      -0.02161608      -0.01424596       0.01288795
H       -1.39260589      -2.43332054       0.11791795      -0.01423021      -0.00731225       0.01421030
H        0.79157284      -2.08919530       1.32447379       0.00945294       0.00060808      -0.00108667
H        1.53767452      -3.35669888       0.33134285       0.01309029      -0.00823421       0.03002293
H        0.20672522      -3.75447618       1.41803616       0.00411860      -0.01615305       0.02270389
H       -1.37541384      -2.30739579      -2.86899723      -0.01298222       0.00006620      -0.00423921
H       -2.11848520      -1.32493266      -1.60175075      -0.02809131       0.00272535      -0.01244466
H       -1.01952711       0.72864430      -2.46489274      -0.01264449       0.01815581      -0.01635753
H       -0.20698211      -0.20396631      -3.73982149      -0.00718724       0.01238700      -0.01011947
H       -1.96351973      -0.08415924      -3.72387617      -0.01723238       0.02894868      -0.01098309
47
Properties=species:S:1:pos:R:3:forces:R:3 Converted=T from=T ColabReaction_Et3N_reactant.gjf=T energy=0.0018588140650271138 pbc="F F F"
C        2.74375862       1.15144018       3.08628090       0.00420751      -0.00105656       0.00616999
N        2.09268713       1.39707463       1.79132016       0.00601754      -0.00077676      -0.00276160
C        2.93372438       2.08844767       0.81033969       0.00544395       0.00389887      -0.00908557
C        0.81546753       1.02150114       1.58276358       0.00377234      -0.00214824       0.00452095
C        0.04193629       1.10712011       0.40032751      -0.02013846      -0.00366422      -0.01152751
C       -1.42219535       1.39880788       0.66864918      -0.01594465      -0.00590836      -0.00779409
C       -1.96893018       2.61068061       0.22856475      -0.00281716       0.01999777      -0.00911278
C       -3.31372282       2.90714777       0.45256704      -0.02243420       0.04296977      -0.01524551
C       -4.13170054       2.00763360       1.13600740       0.02126750       0.00393058      -0.00792920
C       -3.59248157       0.80320148       1.59240088      -0.00666038      -0.01279395       0.00833719
C       -2.25024790       0.50313056       1.36048848       0.00559425      -0.04359319       0.02028047
H        3.62796109       0.52368341       2.93586235       0.01027419      -0.00797926       0.01059326
H        3.05565158       2.10635797       3.51955227       0.00382762      -0.00168701       0.01970281
H        2.05179755       0.64914890       3.76216823       0.00345972       0.00429292       0.00865256
H        2.36613761       2.33554433      -0.08202078      -0.00394187       0.00171608      -0.00619742
H        3.77367394       1.44390261       0.53804176       0.00195825      -0.00684787      -0.00312387
H        3.32618498       3.00873721       1.25189102      -0.00295456       0.00667079       0.00525189
H        0.33730066       0.56414406       2.44758752       0.01278328      -0.00414097       0.00913481
H        0.45647864       1.78551369      -0.34940252      -0.02045509      -0.00794140      -0.00783175
H       -0.02293905      -0.30970375      -0.45059434       0.00000000       0.00000000       0.00000000
H       -1.33832964       3.32417486      -0.29693893      -0.02952532       0.05651283      -0.01956271
H       -3.72288713       3.84770721       0.09549980      -0.00072390       0.06574718      -0.03285371
H       -5.17730602       2.23974444       1.31295679       0.01468134       0.02162838      -0.01498756
H       -4.22221417       0.09616844       2.12513125       0.03034449      -0.05125911       0.01722727
H       -1.84313155      -0.44261856       1.71326670       0.00196362      -0.07756827       0.03814208
C        2.38588220      -1.21781173      -1.59795217       0.01856235       0.00458782      -0.00714606
C        1.15780439      -2.00434932      -2.04963564       0.01783490      -0.01234649      -0.00537672
N       -0.08749056      -1.63292739      -1.30498551       0.00038795      -0.01558544      -0.00247356
C       -0.49075759      -2.70004851      -0.35181572      -0.02483590      -0.01008513       0.01516122
C        0.53521879      -2.98566619       0.74039884      -0.00090385      -0.01701540       0.01603289
C       -1.21456685      -1.37279028      -2.23723295      -0.02896057       0.00511873      -0.01662073
C       -1.03888013      -0.12559529      -3.09849114      -0.01149700       0.00945284      -0.01091849
H        3.25895645      -1.56521349      -2.15987424       0.05155192       0.03103337       0.01122763
H        2.58895645      -1.35760043      -0.53182180       0.03198498      -0.00292139      -0.00579248
H        2.25632737      -0.14901027      -1.79408755       0.02574384       0.01168756      -0.00725485
H        1.33743790      -3.07945067      -1.94403280      -0.00055002      -0.01899380       0.00103082
H        0.99427960      -1.82760305      -3.11374380      -0.00496708       0.00138745      -0.00656913
H       -0.70174014      -3.62029977      -0.91409025      -0.01934539      -0.01912282       0.00453156
H       -1.42784657      -2.37659501       0.10817944      -0.01042734      -0.00498907       0.00998807
H        0.75418048      -2.09516561       1.33718941       0.00989346       0.00405106       0.00153494
H        1.47623694      -3.37489305       0.34205733       0.01136035      -0.01058102       0.03324776
H        0.12544267      -3.74523667       1.41381981       0.00545775      -0.01551302       0.02317135
H       -1.37450612      -2.25539552      -2.87429303      -0.01488800       0.00151009      -0.00410679
H       -2.11301562      -1.25142928      -1.62122149      -0.02185202       0.00288530      -0.01560931
H       -0.96490193       0.77603995      -2.48588486      -0.01175344       0.01599314      -0.01615629
H       -0.15981484      -0.18078920      -3.74768784      -0.00635486       0.01301199      -0.00904025
H       -1.91387694      -0.02685968      -3.74750471      -0.01644201       0.02643421      -0.00886157
47
Properties=species:S:1:pos:R:3:forces:R:3 Converted=T from=T ColabReaction_Et3N_reactant.gjf=T energy=0.0012391156564048789 pbc="F F F"
C        2.78167046       1.14237729       3.06283325       0.00508297      -0.00142406       0.00741828
N        2.11473430       1.40230627       1.77925113       0.00911359       0.00052928      -0.00640065
C        2.94221031       2.10607972       0.79462530       0.00050606       0.00088525      -0.00176721
C        0.82463035       1.03003809       1.58079288      -0.00144360      -0.00141539       0.00268487
C        0.04551298       1.11687074       0.41615857      -0.04516686       0.00803951      -0.01583591
C       -1.42371639       1.38503326       0.68224081      -0.01268173      -0.00476956      -0.00286477
C       -2.00534829       2.55816436       0.18248983      -0.00852907       0.01101206      -0.00384382
C       -3.35661173       2.83084030       0.39990854      -0.01182166       0.01290253      -0.00405820
C       -4.14609055       1.94551797       1.13479518       0.02786379      -0.00382473      -0.00557606
C       -3.57312042       0.78016491       1.65004776      -0.00602458       0.00014027       0.00156777
C       -2.22447359       0.50297212       1.42490328       0.00445134      -0.02385956       0.01237595
H        3.66500247       0.51792462       2.89426765       0.01132859      -0.00646262       0.00814799
H        3.09692454       2.09242493       3.50414283       0.00398314      -0.00295516       0.02204731
H        2.09855771       0.63028487       3.74073813       0.00698345       0.00719356       0.00755217
H        2.35403594       2.38870881      -0.07486086       0.00000000       0.00000000       0.00000000
H        3.76382638       1.45591464       0.48051419       0.00000000       0.00000000       0.00000000
H        3.36215833       3.00670630       1.25188655       0.00000000       0.00000000       0.00000000
H        0.35691238       0.57145886       2.45067792       0.01044771      -0.00269862       0.00625759
H        0.45099895       1.79534744      -0.33864263      -0.02841054      -0.01101076      -0.00765549
H       -0.02990533      -0.36731133      -0.49997053       0.00000000       0.00000000       0.00000000
H       -1.39693405       3.26212657      -0.38134500      -0.02689880       0.00385215       0.00528100
H       -3.79195139       3.74161086      -0.00193024       0.00693772       0.00474309      -0.00471333
H       -5.19654015       2.15959828       1.30677980       0.02336617       0.00763374      -0.01095996
H       -4.18063831       0.08548067       2.22381366       0.04269447       0.00085788      -0.01264029
H       -1.79091961      -0.41247138       1.82462890      -0.01178216       0.00063116       0.00298277
C        2.39611463      -1.24045375      -1.55470041       0.01501356       0.01174035      -0.00702053
C        1.15451661      -1.99265002      -2.02980304       0.01744327      -0.02879034      -0.00444206
N       -0.09230223      -1.59857572      -1.29926593      -0.00332212      -0.01824885       0.00540882
C       -0.52916917      -2.66295627      -0.35473274      -0.01539854      -0.01553922       0.02441582
C        0.47970030      -2.98189584       0.74489948      -0.00263305      -0.01173685       0.01129439
C       -1.20442267      -1.31956604      -2.24663367      -0.02557832       0.01901773      -0.02093360
C       -0.99628233      -0.08105405      -3.11397517      -0.01131709       0.00022870      -0.00795000
H        3.26789861      -1.60687889      -2.10629466       0.04597912       0.02901981       0.01298131
H        2.57999999      -1.39162029      -0.48664618       0.02234784      -0.00182401      -0.01394293
H        2.29667480      -0.16739288      -1.74639558       0.02390771      -0.00671778      -0.00381497
H        1.30650309      -3.07337989      -1.93082056      -0.00477877       0.00163546       0.00061519
H        1.01027375      -1.80304279      -3.09457375      -0.00422448       0.00150707       0.00110369
H       -0.75631409      -3.57340622      -0.92662001      -0.01131597      -0.00642948       0.00233960
H       -1.46253598      -2.31984302       0.09830200      -0.00111846      -0.00497321      -0.00095983
H        0.71654042      -2.10129518       1.34981563       0.00905533      -0.00323229      -0.00327045
H        1.41400161      -3.39275611       0.35212036       0.00144745      -0.00573227       0.03407343
H        0.04416103      -3.73548533       1.40899132       0.00426232      -0.00797353       0.01311209
H       -1.37314214      -2.20308372      -2.87941261      -0.01503860       0.00714909      -0.00380045
H       -2.10657731      -1.17809373      -1.64037269      -0.01420120       0.00199300      -0.01685478
H       -0.91009821       0.82306774      -2.50669545      -0.00997285       0.00468553      -0.01696288
H       -0.11260647      -0.15794769      -3.75505729      -0.00880532       0.01195750      -0.00134619
H       -1.86385955       0.03014051      -3.77087594      -0.01175182       0.02226358      -0.00404568
47
Properties=species:S:1:pos:R:3:forces:R:3 Converted=T from=T ColabReaction_Et3N_reactant.gjf=T energy=0.0009316249687173689 pbc="F F F"
C        2.81964807       1.13341273       3.03895800       0.00589523      -0.00166881       0.00835870
N        2.13668948       1.40755384       1.76710750       0.00970983       0.00148754      -0.00746814
C        2.95097708       2.12378533       0.77851848       0.00914656       0.00306162       0.00161893
C        0.83350156       1.03866413       1.57866331      -0.00753255      -0.00066803       0.00061358
C        0.04862169       1.12735501       0.43208078      -0.05563300       0.00614357      -0.01200980
C       -1.42618010       1.37222676       0.69579171      -0.01336185      -0.00511238       0.00899386
C       -2.04147102       2.50295307       0.13799709       0.00799338      -0.00043123      -0.00174538
C       -3.39918942       2.75141509       0.34900486      -0.01406567       0.01506002      -0.00586411
C       -4.15926874       1.88225246       1.13393353       0.03280301      -0.01815102       0.00290122
C       -3.55415267       0.75956786       1.70604508       0.00004831       0.01105931      -0.00746775
C       -2.19907812       0.50544212       1.48767152       0.01808782      -0.01726034       0.00592217
H        3.70191678       0.51245738       2.85231963       0.01124761      -0.00643210       0.00779826
H        3.13828668       2.07841430       3.48846336       0.00425408      -0.00310890       0.02169884
H        2.14552273       0.61149663       3.71886431       0.00741620       0.00724978       0.00723389
H        2.34317816       2.44151294      -0.06646813       0.00000000       0.00000000       0.00000000
H        3.75299977       1.46931805       0.42332196      -0.00536671       0.00437935       0.00237679
H        3.39794815       3.00368708       1.25101623      -0.00377985      -0.00744096      -0.00399572
H        0.37634435       0.57891459       2.45353983       0.00303732       0.00089461      -0.00149675
H        0.44516563       1.80557622      -0.32776112      -0.03265614      -0.01276890      -0.00506844
H       -0.03690500      -0.42508638      -0.54955664       0.00000000       0.00000000       0.00000000
H       -1.45563104       3.19569432      -0.46310044      -0.02518936      -0.01989975       0.01966991
H       -3.85958877       3.62960415      -0.09600883       0.00985727      -0.03297941       0.01882636
H       -5.21437878       2.07793247       1.30105641       0.02575784      -0.00609433      -0.00318438
H       -4.13894889       0.07915432       2.31944684       0.04176567       0.03388244      -0.03419439
H       -1.74051252      -0.37689615       1.93281907      -0.02943500       0.04879792      -0.02351763
C        2.40572787      -1.26346030      -1.51135556       0.00887567       0.00984163      -0.00823612
C        1.15126194      -1.98066265      -2.00964568       0.01900568      -0.01425652      -0.00741617
N       -0.09691252      -1.56427413      -1.29345315      -0.00101269      -0.00895050      -0.00002023
C       -0.56721820      -2.62550176      -0.35773109      -0.01042742      -0.02111016       0.02954680
C        0.42378681      -2.97801167       0.74919459      -0.00158661      -0.00217520       0.00601697
C       -1.19407375      -1.26603419      -2.25582473      -0.02098621       0.02156051      -0.01925587
C       -0.95342765      -0.03681738      -3.12926806      -0.01188426      -0.00412830      -0.00713194
H        3.27575872      -1.64886825      -2.05260089       0.02946844       0.02421732       0.01261702
H        2.57043986      -1.42549308      -0.44174910       0.00740554      -0.00077625      -0.01809021
H        2.33689670      -0.18679946      -1.69835138       0.01545218      -0.02266166      -0.00334176
H        1.27528932      -3.06656206      -1.91754005      -0.00444565       0.00486710       0.00202191
H        1.02656663      -1.77861689      -3.07476862      -0.00119451       0.00210574       0.01094227
H       -0.81038779      -3.52581901      -0.93927884      -0.00514498       0.00541786       0.00486309
H       -1.49675485      -2.26306761       0.08836835       0.00441464      -0.00812188      -0.00660972
H        0.67856529      -2.10774758       1.36238173       0.00639192      -0.01238357      -0.00951320
H        1.35086944      -3.41025577       0.36178082      -0.00465730      -0.00003979       0.03012121
H       -0.03711602      -3.72510013       1.40370454       0.00203594      -0.00422319       0.00676508
H       -1.37140801      -2.15034996      -2.88439857      -0.01063414       0.01413063      -0.00268361
H       -2.09941416      -1.10468755      -1.65946395      -0.00331128      -0.00059678      -0.01378135
H       -0.85510206       0.86987730      -2.52757696      -0.00576281      -0.00393084      -0.01628543
H       -0.06548774      -0.13524740      -3.76205099      -0.00615339       0.00802011       0.00731239
H       -1.81335489       0.08709120      -3.79409676      -0.00584876       0.01319375       0.00215885
47
Properties=species:S:1:pos:R:3:forces:R:3 Converted=T from=T ColabReaction_Et3N_reactant.gjf=T energy=0.001602259231395894 pbc="F F F"
C        2.85769938       1.12462117       3.01438630       0.00721599      -0.00290968       0.00665368
N        2.15863345       1.41299051       1.75463194       0.00577721       0.00068680      -0.00780876
C        2.95998446       2.14148873       0.76187277       0.01006149       0.00724096      -0.00713001
C        0.84205222       1.04741949       1.57636102      -0.02949206       0.00263303      -0.00838670
C        0.05079481       1.13897764       0.44789918      -0.05001727       0.00082111      -0.00149957
C       -1.42979018       1.36019850       0.70924035       0.01011076       0.02585434      -0.00813441
C       -2.07702328       2.44451761       0.09566273      -0.00599629      -0.05321133       0.04104298
C       -3.44111229       2.66848686       0.30037012       0.02854583      -0.06663202       0.04175941
C       -4.17100617       1.81772499       1.13354943       0.02515420      -0.01284993       0.00285300
C       -3.53567880       0.74155194       1.75991018       0.04110186       0.04848094      -0.04766357
C       -2.17415691       0.51075968       1.54827459      -0.00069874       0.07859865      -0.05816421
H        3.73874673       0.50738053       2.81002042       0.00546621      -0.00287286       0.00548675
H        3.17986751       2.06425416       3.47255572       0.00523623      -0.00006871       0.01643578
H        2.19281503       0.59292817       3.69630531       0.00514645       0.00213530       0.00879026
H        2.33389663       2.49388925      -0.05650219       0.00673085      -0.00378853       0.00879806
H        3.74102856       1.48440888       0.36651005      -0.01016860       0.00855468       0.00514732
H        3.43334350       2.99956344       1.24892597      -0.00662375      -0.01200710      -0.00681537
H        0.39565348       0.58656307       2.45617612       0.00121988       0.00125939      -0.00240428
H        0.43837049       1.81662565      -0.31681762      -0.05507826      -0.01562991       0.00947374
H       -0.04394915      -0.48319342      -0.59944160       0.00000000       0.00000000       0.00000000
H       -1.51409348       3.12419177      -0.54142521      -0.02192142      -0.08224454       0.06554901
H       -3.92507980       3.51118194      -0.18585693       0.01960102      -0.10476254       0.07204115
H       -5.23049689       1.99462632       1.29592583       0.04332197      -0.02507638       0.00664544
H       -4.09712465       0.07726342       2.41128968       0.01613394       0.08883504      -0.07066463
H       -1.69278138      -0.33567993       2.03711376      -0.05082751       0.11695330      -0.07200506
C        2.41466976      -1.28694741      -1.46791433      -0.00349560       0.00145294      -0.01291759
C        1.14842812      -1.96852629      -1.98903969       0.01779946      -0.01042563      -0.00066437
N       -0.10152572      -1.53020856      -1.28759846      -0.00712664      -0.00028980      -0.00415215
C       -0.60503734      -2.58782676      -0.36052487      -0.00281501      -0.01640725       0.01881235
C        0.36734799      -2.97399491       0.75323989      -0.00518734      -0.00311079      -0.00396116
C       -1.18375534      -1.21196674      -2.26495129      -0.00737709       0.01235283      -0.00802111
C       -0.91025035       0.00704958      -3.14440004      -0.01178381      -0.00767287      -0.00428651
H        3.28280201      -1.69104011      -1.99854318       0.00354369       0.01435590       0.00611572
H        2.56048658      -1.45924487      -0.39717091       0.00254791       0.00591992      -0.01379424
H        2.37712188      -0.20747127      -1.64981877       0.00974497      -0.02569597       0.00323646
H        1.24375091      -3.05875586      -1.90407218       0.00260244       0.00917449      -0.00199720
H        1.04327848      -1.75436998      -3.05399273       0.00460762       0.00025156       0.01917355
H       -0.86402578      -3.47743311      -0.95193053      -0.00012154       0.01004428       0.01260470
H       -1.53051720      -2.20628573       0.07846497       0.00435824      -0.00831214      -0.00673784
H        0.64013218      -2.11471418       1.37491885       0.00426020      -0.00864857      -0.00661332
H        1.28672220      -3.42734741       0.37118544      -0.00889233       0.00484043       0.01450085
H       -0.11833203      -3.71390300       1.39807281       0.00065588       0.00099919      -0.00087080
H       -1.36937080      -2.09708433      -2.88930170       0.00039041       0.01588770      -0.00156263
H       -2.09174114      -1.03097266      -1.67876181       0.00565412      -0.00308582      -0.00523105
H       -0.79993407       0.91658303      -2.54876351       0.00266293      -0.00409904      -0.00988348
H       -0.01863320      -0.11250245      -3.76880010      -0.00580788       0.00764981       0.00906927
H       -1.76221038       0.14422266      -3.81723582      -0.00622062       0.00481883      -0.00281942
47
Properties=species:S:1:pos:R:3:forces:R:3 Converted=T from=T ColabReaction_Et3N_reactant.gjf=T energy=0.0017954281833316836 pbc="F F F"
C        2.89540847       1.11624555       2.98820017       0.00306527      -0.00590932       0.00670648
N        2.18008713       1.41877855       1.74111406       0.00601338       0.00142050       0.00138629
C        2.96859304       2.15820149       0.74570394       0.00075306       0.01154140      -0.00826121
C        0.84983419       1.05633689       1.57371752      -0.03611159       0.00462754      -0.01347193
C        0.05184476       1.15302592       0.46354998      -0.03450385      -0.00477151       0.00980014
C       -1.43180111       1.34871850       0.72252163       0.02101262       0.00749461       0.00555453
C       -2.11103927       2.38138271       0.05672760      -0.01272674      -0.05187330       0.04639491
C       -3.48039267       2.57977725       0.25576326       0.06408416      -0.08439858       0.05302330
C       -4.18309441       1.75217066       1.13406788       0.00696117       0.00153896      -0.00282318
C       -3.51735143       0.72683027       1.81068562       0.05715572       0.03340951      -0.04365778
C       -2.15056511       0.52111907       1.60481107      -0.03069766       0.10121998      -0.07548191
H        3.77528081       0.50293101       2.76741025      -0.00329817       0.00229899       0.00082762
H        3.22171347       2.04967452       3.45644318       0.00003911       0.00002369       0.00006440
H        2.24035474       0.57486156       3.67226802       0.00456964       0.00023881       0.00294984
H        2.32656311       2.54579886      -0.04403775       0.01309060      -0.00842857       0.01246882
H        3.72813427       1.50150336       0.31036235      -0.00807578       0.00653794       0.00155737
H        3.46813463       2.99402950       1.24499467      -0.00576788      -0.00965076      -0.00576498
H        0.41440090       0.59450298       2.45824278       0.00000000       0.00000000       0.00000000
H        0.42997477       1.82987869      -0.30607072      -0.04950395      -0.01142233       0.01625222
H       -0.05103708      -0.54158249      -0.64961934       0.00000000       0.00000000       0.00000000
H       -1.56974254       3.04515691      -0.61463053      -0.00153826      -0.07726004       0.06314102
H       -3.98708705       3.38428874      -0.26942946       0.01249957      -0.10019778       0.07963678
H       -5.24634698       1.90913470       1.29243069       0.03398982      -0.02891333       0.01486617
H       -4.05644571       0.08107004       2.49808961      -0.00599950       0.08696169      -0.07103821
H       -1.64918958      -0.28696856       2.13572716      -0.03501074       0.12551192      -0.09413069
C        2.42227507      -1.31117597      -1.42437784      -0.01170612      -0.00917960      -0.01169902
C        1.14664081      -1.95636834      -1.96768027       0.01028591      -0.00028782       0.00709776
N       -0.10639540      -1.49682048      -1.28165846       0.00259974      -0.00052027      -0.00389887
C       -0.64219575      -2.55004942      -0.36282166       0.00932499      -0.00715511       0.00743065
C        0.31048991      -2.96935457       0.75641815      -0.00585616      -0.00218879      -0.00821618
C       -1.17373684      -1.15693497      -2.27412803       0.00196034       0.00899492       0.00629353
C       -0.86660809       0.05016319      -3.15898450      -0.00577195      -0.01024972       0.00091456
H        3.28845801      -1.73329749      -1.94422187       0.00193011      -0.00094061      -0.00115837
H        2.54994926      -1.49291942      -0.35287855      -0.00548235       0.00535842      -0.01222360
H        2.41705509      -0.23013097      -1.60079104      -0.00436821      -0.01681857       0.00552784
H        1.21146291      -3.04927514      -1.89013661       0.00868596       0.02697379      -0.00540994
H        1.06063923      -1.73037291      -3.03187943       0.00645560      -0.00735107       0.02274982
H       -0.91640172      -3.42791462      -0.96490782       0.00350526       0.00777794       0.01301972
H       -1.56325474      -2.14961425       0.06869723       0.00268347      -0.00530303      -0.00428791
H        0.60080806      -2.12257404       1.38748649       0.00023751      -0.00361395      -0.00403351
H        1.22127768      -3.44388312       0.37950614      -0.01371313       0.00868138      -0.00218672
H       -0.19900980      -3.70124998       1.39181323       0.00000000       0.00000000       0.00000000
H       -1.36688660      -2.04319228      -2.89422107       0.00046112       0.00694054      -0.00641509
H       -2.08345151      -0.95675466      -1.69850650       0.00101800      -0.00154346      -0.00169871
H       -0.74489219       0.96297499      -2.57027020       0.00420760      -0.00570996      -0.00654804
H        0.02747417      -0.08965392      -3.77549496      -0.00420484       0.00573062       0.00656137
H       -1.70992895       0.20153164      -3.84000606      -0.00225285       0.00040437      -0.00181928
47
Properties=species:S:1:pos:R:3:forces:R:3 Converted=T from=T ColabReaction_Et3N_reactant.gjf=T energy=1.2807849908772497e-28 pbc="F F F"
C        2.93214117       1.10861544       2.95914737      -0.00000000      -0.00000000       0.00000000
N        2.20028311       1.42507460       1.72561014      -0.00000000      -0.00000000      -0.00000000
C        2.97585493       2.17246522       0.73162614      -0.00000000       0.00000000      -0.00000000
C        0.85618352       1.06544517       1.57048467       0.00000000       0.00000000       0.00000000
C        0.05172821       1.17124159       0.47903689      -0.00000000      -0.00000000       0.00000000
C       -1.42794889       1.33753617       0.73556865      -0.00000000      -0.00000000       0.00000000
C       -2.14219751       2.31158596       0.02277481      -0.00000000      -0.00000000       0.00000000
C       -3.51419638       2.48203321       0.21758416      -0.00000000       0.00000000      -0.00000000
C       -4.19836534       1.68600334       1.13606732       0.00000000      -0.00000000      -0.00000000
C       -3.49859257       0.71641023       1.85716947      -0.00000000      -0.00000000       0.00000000
C       -2.12954902       0.53973155       1.65466756       0.00000000      -0.00000000       0.00000000
H        3.81117663       0.49941683       2.72454895       0.00000000      -0.00000000      -0.00000000
H        3.26382820       2.03430347       3.44013942       0.00000000       0.00000000       0.00000000
H        2.28795777       0.55764994       3.64567534      -0.00000000      -0.00000000       0.00000000
H        2.32156970       2.59721767      -0.02784834      -0.00000000      -0.00000000      -0.00000000
H        3.71473770       1.52092811       0.25528573       0.00000000      -0.00000000      -0.00000000
H        3.50211242       2.98668171       1.23846366       0.00000000       0.00000000       0.00000000
H        0.43189250       0.60285719       2.45921711       0.00000000       0.00000000       0.00000000
H        0.41932400       1.84721122      -0.29588142       0.00000000       0.00000000      -0.00000000
H       -0.05816206      -0.60009327      -0.70003489       0.00000000       0.00000000       0.00000000
H       -1.61884000       2.95521350      -0.68055968       0.00000000       0.00000000      -0.00000000
H       -4.04395490       3.24607083      -0.34408098      -0.00000000       0.00000000      -0.00000000
H       -5.26429675       1.82069393       1.29207880      -0.00000000       0.00000000       0.00000000
H       -4.01886223       0.09244799       2.57833075      -0.00000000      -0.00000000       0.00000000
H       -1.61150542      -0.22806281       2.22632649      -0.00000000       0.00000000      -0.00000000
C        2.42756295      -1.33648145      -1.38074946       0.00000000      -0.00000000      -0.00000000
C        1.14664820      -1.94431021      -1.94516948      -0.00000000       0.00000000      -0.00000000
N       -0.11180043      -1.46468293      -1.27554099       0.00000000      -0.00000000      -0.00000000
C       -0.67797244      -2.51227569      -0.36432565       0.00000000      -0.00000000      -0.00000000
C        0.25344033      -2.96335650       0.75781712      -0.00000000      -0.00000000      -0.00000000
C       -1.16430527      -1.10040678      -2.28345386      -0.00000000      -0.00000000       0.00000000
C       -0.82231914       0.09197584      -3.17242015       0.00000000      -0.00000000      -0.00000000
H        3.29172597      -1.77556624      -1.88991758       0.00000000       0.00000000       0.00000000
H        2.53843030      -1.52656965      -0.30880125       0.00000000       0.00000000       0.00000000
H        2.45618278      -0.25574907      -1.55132811       0.00000000       0.00000000      -0.00000000
H        1.17780508      -3.03720474      -1.87537002       0.00000000      -0.00000000       0.00000000
H        1.07893533      -1.70671005      -3.00804609       0.00000000      -0.00000000       0.00000000
H       -0.96623059      -3.37681183      -0.97878491      -0.00000000      -0.00000000       0.00000000
H       -1.59409933      -2.09322147       0.05918019      -0.00000000       0.00000000       0.00000000
H        0.56000023      -2.13180285       1.40015872       0.00000000       0.00000000       0.00000000
H        1.15416923      -3.45966181       0.38541284       0.00000000       0.00000000       0.00000000
H       -0.27845552      -3.68625715       1.38443893      -0.00000000      -0.00000000       0.00000000
H       -1.36370289      -1.98858713      -2.89928059      -0.00000000       0.00000000      -0.00000000
H       -2.07427289      -0.88186166      -1.71892471      -0.00000000      -0.00000000      -0.00000000
H       -0.69041722       1.00867623      -2.59199941       0.00000000       0.00000000       0.00000000
H        0.07219264      -0.06670827      -3.78235643       0.00000000       0.00000000       0.00000000
H       -1.65583610       0.25889462      -3.86193722      -0.00000000      -0.00000000      -0.00000000
