47
Properties=species:S:1:pos:R:3 Converted=T from=T ColabReaction_Et3N_reactant.gjf=T charge=1 spin=1 pbc="F F F"
C        2.74478150       1.15119475       3.08565197
N        2.09328465       1.39721713       1.79099361
C        2.93394998       2.08892286       0.80991828
C        0.81571883       1.02173074       1.58271251
C        0.04203466       1.10737627       0.40075179
C       -1.42222872       1.39842179       0.66901603
C       -1.96991531       2.60929492       0.22730471
C       -3.31488316       2.90512768       0.45112592
C       -4.13210086       2.00597086       1.13597088
C       -3.59195515       0.80254833       1.59397477
C       -2.24954734       0.50309170       1.36224558
H        3.62896315       0.52352487       2.93474430
H        3.05676559       2.10598251       3.51914029
H        2.05305820       0.64863986       3.76159411
H        2.36579747       2.33698339      -0.08184136
H        3.77341919       1.44421109       0.53648481
H        3.32715650       3.00869456       1.25189948
H        0.33783333       0.56434004       2.44767430
H        0.45633016       1.78577665      -0.34911402
H       -0.02312674      -0.31125805      -0.45192514
H       -1.33990960       3.32255354      -0.29924607
H       -3.72476435       3.84491840       0.09283254
H       -5.17783891       2.23760058       1.31278442
H       -4.22109203       0.09582216       2.12782889
H       -1.84170556      -0.44187594       1.71630889
C        2.38616667      -1.21841893      -1.59678597
C        1.15771833      -2.00403854      -2.04910372
N       -0.08762479      -1.63200091      -1.30483289
C       -0.49180081      -2.69905337      -0.35189092
C        0.53372414      -2.98556623       0.74052320
C       -1.21429774      -1.37135600      -2.23749071
C       -1.03773327      -0.12438935      -3.09891225
H        3.25921513      -1.56633254      -2.15842709
H        2.58872485      -1.35852078      -0.53059925
H        2.25741955      -0.14949459      -1.79280364
H        1.33660660      -3.07929498      -1.94367623
H        0.99470830      -1.82693875      -3.11323186
H       -0.70322113      -3.61904252      -0.91442510
H       -1.42878973      -2.37506360       0.10791431
H        0.75316820      -2.09532828       1.33753122
H        1.47456809      -3.37537967       0.34233645
H        0.12324884      -3.74498072       1.41369688
H       -1.37447495      -2.25398817      -2.87443336
H       -2.11285354      -1.24944874      -1.62174151
H       -0.96342518       0.77731343      -2.48644786
H       -0.15854069      -0.18016911      -3.74789275
H       -1.91253237      -0.02531834      -3.74813844
47
Properties=species:S:1:pos:R:3 Converted=T from=T ColabReaction_Et3N_reactant.gjf=T charge=1 spin=1 pbc="F F F"
C        2.74087139       1.15254346       3.08429790
N        2.06398119       1.38852165       1.78945587
C        2.93084515       2.08457148       0.81177414
C        0.84508341       1.02089789       1.58218937
C        0.03438312       1.09463121       0.38560925
C       -1.42698902       1.39883328       0.66787831
C       -1.96970478       2.60830283       0.23167767
C       -3.31108610       2.90749508       0.45648377
C       -4.12533967       2.00865661       1.13519611
C       -3.59122604       0.80783525       1.58808605
C       -2.25103587       0.50659690       1.35406296
H        3.62396479       0.52555576       2.93837409
H        3.05299096       2.10440027       3.51961620
H        2.05122476       0.65134141       3.76171989
H        2.36729390       2.33258462      -0.08113405
H        3.77271328       1.44451114       0.54057575
H        3.32314072       3.00644525       1.25181699
H        0.33873979       0.56615165       2.44794296
H        0.45589572       1.78089408      -0.34984186
H       -0.01158967      -0.30639058      -0.44409056
H       -1.33728738       3.32550922      -0.29206350
H       -3.71855022       3.85029899       0.10093170
H       -5.17369772       2.24287531       1.31261321
H       -4.22212198       0.09830143       2.11933232
H       -1.84642832      -0.44271411       1.70740374
C        2.38431331      -1.21851498      -1.60103396
C        1.16111307      -1.99935037      -2.04725061
N       -0.08969060      -1.61639814      -1.29437909
C       -0.48729898      -2.70051744      -0.34751294
C        0.53669922      -2.98633974       0.73916649
C       -1.21992199      -1.37182543      -2.23823547
C       -1.03986906      -0.13053308      -3.09745465
H        3.25673357      -1.56164273      -2.16043062
H        2.58844334      -1.35583177      -0.53587196
H        2.25435678      -0.15007709      -1.79575235
H        1.33651870      -3.07778173      -1.94298539
H        0.99257404      -1.82840209      -3.11259927
H       -0.69866906      -3.61985345      -0.91366649
H       -1.42520158      -2.37954752       0.10746623
H        0.75522965      -2.09538860       1.33500666
H        1.47703027      -3.37315629       0.34205513
H        0.13067264      -3.74360556       1.41221352
H       -1.37276682      -2.25649210      -2.87165840
H       -2.11069949      -1.25549793      -1.62184700
H       -0.96781937       0.77271956      -2.48502580
H       -0.16385807      -0.18171238      -3.74559718
H       -1.91396101      -0.02890119      -3.74451513
47
Properties=species:S:1:pos:R:3 Converted=T from=T ColabReaction_Et3N_reactant.gjf=T charge=1 spin=1 pbc="F F F"
C        2.74178984       1.15082853       3.07701452
N        2.07358001       1.39121402       1.78902461
C        2.92583012       2.08315552       0.81038938
C        0.84075090       1.01071671       1.57372845
C        0.03281853       1.07763697       0.37649682
C       -1.42758577       1.39516130       0.66881805
C       -1.97779471       2.59751098       0.22390952
C       -3.31643102       2.89378799       0.44849658
C       -4.12540642       1.99801658       1.13463926
C       -3.58541155       0.80540712       1.59667845
C       -2.24744352       0.50719147       1.36235087
H        3.62686697       0.52648829       2.93104169
H        3.05810553       2.09971551       3.51530251
H        2.06062206       0.64978679       3.75710899
H        2.36589474       2.34051072      -0.07916346
H        3.76885321       1.44666086       0.53210625
H        3.32599684       3.00209053       1.25267115
H        0.34803734       0.57173350       2.44551633
H        0.45316189       1.77774989      -0.34960076
H        0.00103298      -0.31157847      -0.44489724
H       -1.34940589       3.31298992      -0.30382898
H       -3.72796276       3.83048248       0.08667032
H       -5.17183028       2.22915721       1.31056818
H       -4.21242082       0.09900902       2.13320930
H       -1.83947159      -0.43572188       1.72382537
C        2.38546035      -1.22243145      -1.59451025
C        1.16036591      -1.99145842      -2.03969592
N       -0.09163729      -1.59367492      -1.28308309
C       -0.49202730      -2.69097585      -0.34533477
C        0.52727158      -2.98525850       0.73926880
C       -1.22013195      -1.35962158      -2.23950031
C       -1.03324008      -0.12486101      -3.09897240
H        3.25690839      -1.56659143      -2.15013706
H        2.58599700      -1.36114183      -0.53076482
H        2.26066532      -0.15512877      -1.78756103
H        1.32806978      -3.07312697      -1.93831503
H        0.99383555      -1.82372689      -3.10637030
H       -0.70626698      -3.60812585      -0.91598087
H       -1.43020893      -2.37103194       0.10536998
H        0.74840290      -2.09694128       1.33507485
H        1.46512312      -3.37511773       0.34386128
H        0.11920639      -3.74034230       1.40992649
H       -1.36997316      -2.24699735      -2.86927603
H       -2.10907439      -1.24414651      -1.62587157
H       -0.95958644       0.77824109      -2.48868325
H       -0.15768967      -0.17829837      -3.74517001
H       -1.90364673      -0.01894371      -3.74635088
47
Properties=species:S:1:pos:R:3 Converted=T from=T ColabReaction_Et3N_reactant.gjf=T charge=1 spin=1 pbc="F F F"
C        2.74237368       1.14960760       3.06371539
N        2.07425490       1.39072575       1.78058064
C        2.91800876       2.07889572       0.81106289
C        0.83834108       0.98695897       1.54690141
C        0.03324876       1.03318048       0.35480207
C       -1.42427488       1.38239185       0.66477745
C       -1.98648341       2.57895181       0.21020054
C       -3.32442091       2.87195538       0.43702310
C       -4.12429066       1.98194608       1.13364076
C       -3.57538357       0.80168220       1.60995225
C       -2.24130267       0.50643789       1.37359183
H        3.62688219       0.52994037       2.91821367
H        3.06328925       2.09015544       3.50592993
H        2.07360267       0.64732590       3.75043372
H        2.36138218       2.35147467      -0.07707711
H        3.75898239       1.44969305       0.52042004
H        3.32503752       2.98829781       1.25456137
H        0.36750452       0.58234298       2.44057993
H        0.44574249       1.76324017      -0.35258448
H        0.03683290      -0.31523043      -0.43819689
H       -1.37120004       3.29004967      -0.31969988
H       -3.74003267       3.79691919       0.06698943
H       -5.16381384       2.20717452       1.30649878
H       -4.19394317       0.10335789       2.15183478
H       -1.83082055      -0.42243141       1.74623348
C        2.38734592      -1.22577188      -1.58295760
C        1.15292511      -1.97352457      -2.02279881
N       -0.09237757      -1.54792980      -1.25890987
C       -0.49908435      -2.66800866      -0.34242199
C        0.51338409      -2.98068985       0.73915105
C       -1.21586219      -1.33701596      -2.23566054
C       -1.02415398      -0.11431690      -3.09972751
H        3.25750806      -1.57317790      -2.13412784
H        2.58146543      -1.36915835      -0.52366708
H        2.27014041      -0.16327206      -1.77460250
H        1.30819597      -3.05740083      -1.92583687
H        0.99312884      -1.81428254      -3.09075437
H       -0.71467105      -3.58075478      -0.92090574
H       -1.43922986      -2.35855224       0.10402024
H        0.73754254      -2.09876990       1.33385491
H        1.44610563      -3.37739019       0.34551985
H        0.10258461      -3.73506599       1.40614639
H       -1.36020911      -2.23160289      -2.85973383
H       -2.11101736      -1.22615250      -1.63136513
H       -0.94771060       0.78455591      -2.49400737
H       -0.14837493      -0.17429620      -3.74318997
H       -1.88715253      -0.00246548      -3.74841052
47
Properties=species:S:1:pos:R:3 Converted=T from=T ColabReaction_Et3N_reactant.gjf=T charge=1 spin=1 pbc="F F F"
C        2.74028283       1.14766398       3.05514609
N        2.07145831       1.38744939       1.77019602
C        2.91332120       2.07729936       0.80606011
C        0.83823349       0.97162664       1.53428630
C        0.03607989       1.01097293       0.34100102
C       -1.42040510       1.36971636       0.65796128
C       -1.98998611       2.56156154       0.20315851
C       -3.32627781       2.85585347       0.42946975
C       -4.12178747       1.97055398       1.13322146
C       -3.56832736       0.80038181       1.61757791
C       -2.23644623       0.50632204       1.38031927
H        3.62740047       0.53098065       2.90771239
H        3.06602938       2.08694259       3.49905522
H        2.07955364       0.64456862       3.74691246
H        2.35734830       2.35801050      -0.07562407
H        3.75275035       1.44940906       0.51284312
H        3.32365739       2.98009269       1.25794092
H        0.37893192       0.58639499       2.43598925
H        0.44014616       1.74762025      -0.35686782
H        0.05976325      -0.31694746      -0.43367887
H       -1.38248837       3.27758451      -0.33320027
H       -3.74855244       3.77730235       0.05335235
H       -5.16248575       2.19340344       1.30462958
H       -4.18352270       0.10387342       2.16615642
H       -1.82408471      -0.41751117       1.76171415
C        2.38869993      -1.22743097      -1.57488765
C        1.14637749      -1.96130023      -2.01114341
N       -0.09068842      -1.52964020      -1.24974222
C       -0.50434726      -2.64979510      -0.34113501
C        0.50397668      -2.97717571       0.73889306
C       -1.21155742      -1.32196050      -2.22781997
C       -1.01710740      -0.10605135      -3.10100183
H        3.25883463      -1.57842765      -2.12481115
H        2.57941413      -1.37441063      -0.51550548
H        2.27666568      -0.16432627      -1.76623360
H        1.29177154      -3.04398682      -1.91443287
H        0.99062278      -1.80575745      -3.07878648
H       -0.71839772      -3.55768021      -0.92606143
H       -1.44749520      -2.34927663       0.10562383
H        0.73159392      -2.09725906       1.33536774
H        1.43507924      -3.37895209       0.34516664
H        0.09071310      -3.73229851       1.40436478
H       -1.35012613      -2.22064090      -2.84979528
H       -2.11483920      -1.21307704      -1.63432721
H       -0.93965547       0.79177369      -2.49561802
H       -0.14120157      -0.17215866      -3.74197781
H       -1.87892587       0.00870635      -3.75146920
47
Properties=species:S:1:pos:R:3 Converted=T from=T ColabReaction_Et3N_reactant.gjf=T charge=1 spin=1 pbc="F F F"
C        2.73912899       1.14586423       3.04548666
N        2.06776587       1.38109302       1.75871992
C        2.91069468       2.07664927       0.79936149
C        0.84040442       0.95992720       1.52269953
C        0.03922625       0.99367237       0.33291177
C       -1.41521042       1.35290848       0.64876320
C       -1.98910884       2.54449864       0.19290287
C       -3.32791230       2.83948985       0.42067339
C       -4.12194728       1.95997844       1.13274070
C       -3.56184668       0.79596638       1.62742495
C       -2.22868753       0.50307685       1.38791016
H        3.62787287       0.53128333       2.89507359
H        3.06787211       2.08503108       3.49045001
H        2.08320347       0.64029518       3.74373711
H        2.35102877       2.36554285      -0.07669436
H        3.74686869       1.44734596       0.50394829
H        3.32197292       2.97239237       1.26249754
H        0.38733089       0.58598999       2.43232293
H        0.43602657       1.72963154      -0.36563102
H        0.08011964      -0.31874563      -0.43041570
H       -1.39335036       3.26380597      -0.34889218
H       -3.75691655       3.75627526       0.03848115
H       -5.16281712       2.17870585       1.30308306
H       -4.17292060       0.10343635       2.18285579
H       -1.81628558      -0.41460799       1.77910549
C        2.39061598      -1.22758731      -1.56487525
C        1.14042135      -1.94987052      -2.00040925
N       -0.08908609      -1.51841336      -1.24427427
C       -0.51100457      -2.63124555      -0.33925465
C        0.49449834      -2.97248495       0.73953491
C       -1.20693743      -1.30650747      -2.21935051
C       -1.00989374      -0.09581617      -3.10173856
H        3.26015327      -1.58502814      -2.11555532
H        2.57810339      -1.37976321      -0.50457767
H        2.28445380      -0.16292222      -1.75696250
H        1.27289086      -3.02965751      -1.90042044
H        0.98655509      -1.79472729      -3.06598085
H       -0.72184578      -3.53065415      -0.93310157
H       -1.45734314      -2.33763338       0.10860691
H        0.72622757      -2.09455386       1.33877529
H        1.42376495      -3.38037051       0.34394190
H        0.07685824      -3.72943185       1.40259770
H       -1.33738563      -2.20790440      -2.83670536
H       -2.11969605      -1.19776020      -1.63643473
H       -0.93046214       0.80228283      -2.49664598
H       -0.13207241      -0.16998715      -3.74121755
H       -1.87132876       0.02052954      -3.75546861
47
Properties=species:S:1:pos:R:3 Converted=T from=T ColabReaction_Et3N_reactant.gjf=T charge=1 spin=1 pbc="F F F"
C        2.73914893       1.14574352       3.04515862
N        2.06772646       1.38079429       1.75825356
C        2.91067356       2.07668575       0.79901623
C        0.84053997       0.95970462       1.52255982
C        0.03939601       0.99345317       0.33286878
C       -1.41504099       1.35226144       0.64836013
C       -1.98909555       2.54374261       0.19243913
C       -3.32791716       2.83877485       0.42025524
C       -4.12192947       1.95945051       1.13274337
C       -3.56156484       0.79578605       1.62782749
C       -2.22839883       0.50284221       1.38828463
H        3.62793674       0.53124159       2.89449559
H        3.06792277       2.08502296       3.49003736
H        2.08330122       0.64008753       3.74356196
H        2.35071707       2.36590249      -0.07682719
H        3.74669636       1.44720185       0.50349393
H        3.32195564       2.97217556       1.26270139
H        0.38747361       0.58574703       2.43218269
H        0.43596668       1.72890586      -0.36612903
H        0.08057373      -0.31887397      -0.43043607
H       -1.39365980       3.26327198      -0.34969970
H       -3.75726250       3.75541208       0.03778690
H       -5.16300727       2.17809826       1.30305043
H       -4.17254889       0.10330120       2.18370507
H       -1.81587054      -0.41464993       1.77994410
C        2.39072668      -1.22755497      -1.56439863
C        1.14028062      -1.94952792      -2.00007253
N       -0.08907533      -1.51824476      -1.24422158
C       -0.51134199      -2.63060273      -0.33914106
C        0.49411301      -2.97227844       0.73961768
C       -1.20679528      -1.30588533      -2.21905712
C       -1.00956499      -0.09531804      -3.10177386
H        3.26017383      -1.58535514      -2.11516716
H        2.57809313      -1.37997250      -0.50402876
H        2.28483933      -0.16277810      -1.75653821
H        1.27214728      -3.02920859      -1.89982628
H        0.98636702      -1.79419852      -3.06554031
H       -0.72204156      -3.52957375      -0.93345244
H       -1.45776530      -2.33703921       0.10874962
H        0.72604306      -2.09442045       1.33900945
H        1.42328469      -3.38041567       0.34387708
H        0.07620172      -3.72929940       1.40252451
H       -1.33686146      -2.20737103      -2.83616908
H       -2.11985082      -1.19704749      -1.63648366
H       -0.93002954       0.80286343      -2.49669187
H       -0.13164875      -0.16987130      -3.74119600
H       -1.87102827       0.02101637      -3.75565425
47
Properties=species:S:1:pos:R:3 Converted=T from=T ColabReaction_Et3N_reactant.gjf=T charge=1 spin=1 pbc="F F F"
C        2.73943715       1.14498125       3.04343657
N        2.06793721       1.37896083       1.75604269
C        2.91071289       2.07695915       0.79682878
C        0.84129721       0.95930900       1.52247328
C        0.04041397       0.99363613       0.33357779
C       -1.41439193       1.34851266       0.64629093
C       -1.98867855       2.53987109       0.18935730
C       -3.32800946       2.83480451       0.41794243
C       -4.12203316       1.95683836       1.13265284
C       -3.56026863       0.79416484       1.63034620
C       -2.22650835       0.50113119       1.39015634
H        3.62828217       0.53082876       2.89119825
H        3.06787898       2.08519440       3.48745233
H        2.08347965       0.63886961       3.74241464
H        2.34890004       2.36789763      -0.07784046
H        3.74593672       1.44620553       0.50073648
H        3.32186837       2.97120859       1.26385105
H        0.38745756       0.58343784       2.43149358
H        0.43615991       1.72478651      -0.36961326
H        0.08181067      -0.31960316      -0.43086266
H       -1.39487980       3.26021381      -0.35441649
H       -3.75880420       3.75071180       0.03393356
H       -5.16413794       2.17481235       1.30292587
H       -4.17053188       0.10244751       2.18858632
H       -1.81342638      -0.41549033       1.78472226
C        2.39137565      -1.22718585      -1.56161860
C        1.13983356      -1.94795539      -1.99850598
N       -0.08921917      -1.51765594      -1.24406768
C       -0.51329170      -2.62747444      -0.33833177
C        0.49209862      -2.97105753       0.74026885
C       -1.20620382      -1.30249586      -2.21765977
C       -1.00774970      -0.09236938      -3.10187927
H        3.26005812      -1.58720081      -2.11304774
H        2.57822628      -1.38093581      -0.50079573
H        2.28717053      -0.16166324      -1.75407445
H        1.26823982      -3.02729793      -1.89647066
H        0.98519746      -1.79100178      -3.06343317
H       -0.72323527      -3.52385900      -0.93560170
H       -1.46003052      -2.33340515       0.10963755
H        0.72527291      -2.09361680       1.34061901
H        1.42065677      -3.38049379       0.34345070
H        0.07248179      -3.72846198       1.40210547
H       -1.33397402      -2.20455566      -2.83319887
H       -2.12051197      -1.19293617      -1.63651521
H       -0.92756732       0.80649679      -2.49697771
H       -0.12930787      -0.16915395      -3.74100053
H       -1.86942238       0.02358982      -3.75658933
47
Properties=species:S:1:pos:R:3 Converted=T from=T ColabReaction_Et3N_reactant.gjf=T charge=1 spin=1 pbc="F F F"
C        2.73939827       1.14433788       3.04193874
N        2.06798107       1.37732767       1.75428536
C        2.91051744       2.07687333       0.79517022
C        0.84190332       0.95867083       1.52218399
C        0.04114082       0.99322620       0.33378449
C       -1.41383431       1.34553201       0.64431908
C       -1.98835654       2.53658747       0.18684620
C       -3.32769095       2.83175749       0.41612365
C       -4.12186714       1.95457148       1.13270402
C       -3.55903240       0.79306719       1.63201983
C       -2.22525477       0.49935666       1.39140571
H        3.62823767       0.53052324       2.88856115
H        3.06740593       2.08531258       3.48508062
H        2.08337189       0.63799050       3.74134179
H        2.34739264       2.36929775      -0.07880000
H        3.74523478       1.44530788       0.49855206
H        3.32143240       2.97016790       1.26477727
H        0.38736653       0.58127663       2.43073691
H        0.43647131       1.72088608      -0.37300808
H        0.08312148      -0.31988426      -0.43077294
H       -1.39552078       3.25767662      -0.35808473
H       -3.75949661       3.74705379       0.03118700
H       -5.16472350       2.17239271       1.30280589
H       -4.16891448       0.10176296       2.19234094
H       -1.81161292      -0.41642288       1.78819414
C        2.39184379      -1.22669795      -1.55940399
C        1.13947389      -1.94642192      -1.99706123
N       -0.08940358      -1.51620830      -1.24326949
C       -0.51472941      -2.62485921      -0.33745610
C        0.49065246      -2.96994221       0.74084263
C       -1.20585483      -1.29962946      -2.21646407
C       -1.00643283      -0.09004420      -3.10177816
H        3.25975256      -1.58847184      -2.11138309
H        2.57840609      -1.38147596      -0.49833237
H        2.28906449      -0.16067088      -1.75208216
H        1.26498010      -3.02568301      -1.89353316
H        0.98403609      -1.78825108      -3.06163812
H       -0.72400781      -3.51911473      -0.93743223
H       -1.46170914      -2.33046193       0.11045744
H        0.72484946      -2.09294748       1.34194102
H        1.41859570      -3.38032920       0.34303864
H        0.06975509      -3.72764837       1.40170744
H       -1.33142991      -2.20241919      -2.83051145
H       -2.12100733      -1.18970497      -1.63638374
H       -0.92573212       0.80940748      -2.49720279
H       -0.12763355      -0.16860590      -3.74065308
H       -1.86814035       0.02553057      -3.75709525
47
Properties=species:S:1:pos:R:3 Converted=T from=T ColabReaction_Et3N_reactant.gjf=T charge=1 spin=1 pbc="F F F"
C        2.72986457       1.13525859       3.02313391
N        2.06682805       1.35133479       1.73073612
C        2.90366492       2.07010513       0.77259499
C        0.84465925       0.94485377       1.51760480
C        0.05195244       0.98490677       0.33197357
C       -1.40757526       1.29993050       0.61340742
C       -1.97544166       2.49737228       0.15430944
C       -3.31507057       2.79809655       0.40008235
C       -4.11366915       1.93506732       1.13163488
C       -3.54493195       0.77625200       1.64744925
C       -2.20906063       0.47129372       1.39314851
H        3.61874924       0.52641413       2.85677245
H        3.04845467       2.08982049       3.44904622
H        2.07081508       0.62905986       3.72679913
H        2.32702010       2.37856300      -0.09491777
H        3.73577860       1.42880100       0.47532559
H        3.30538852       2.95276653       1.27816963
H        0.38092708       0.54342086       2.41583377
H        0.44448913       1.65448118      -0.43172698
H        0.10306007      -0.31475798      -0.41947025
H       -1.39114323       3.22860895      -0.39759026
H       -3.75210865       3.71349568       0.00945801
H       -5.16665593       2.15218853       1.30218069
H       -4.15071922       0.09405693       2.22961103
H       -1.79453321      -0.44030601       1.81806248
C        2.39684597      -1.21366396      -1.53387844
C        1.13327421      -1.92279176      -1.97647522
N       -0.09092610      -1.49373163      -1.22743341
C       -0.52845830      -2.59013177      -0.32229436
C        0.48007930      -2.95275267       0.74939442
C       -1.20270712      -1.26429061      -2.19483547
C       -0.99534138      -0.06264573      -3.09607339
H        3.25164060      -1.59812551      -2.09604957
H        2.58393018      -1.38083163      -0.47008175
H        2.31119460      -0.14099159      -1.72994947
H        1.22114453      -3.00193546      -1.84983168
H        0.96197341      -1.74922919      -3.03712851
H       -0.72481428      -3.45520551      -0.96332750
H       -1.47956435      -2.29546402       0.12606778
H        0.72746865      -2.08148613       1.36065588
H        1.39935333      -3.37222145       0.33452075
H        0.04541258      -3.71579333       1.39653378
H       -1.29192086      -2.18092752      -2.78686426
H       -2.12945011      -1.15407027      -1.62909235
H       -0.90903736       0.84572092      -2.49718609
H       -0.11287024      -0.16413075      -3.73208140
H       -1.85796953       0.04361502      -3.75821874
47
Properties=species:S:1:pos:R:3 Converted=T from=T ColabReaction_Et3N_reactant.gjf=T charge=1 spin=1 pbc="F F F"
C        2.73561464       1.13763116       3.03059231
N        2.06698107       1.35878338       1.73968682
C        2.90843037       2.07345924       0.77882730
C        0.84498462       0.95596400       1.52452291
C        0.04852617       1.00319677       0.34053687
C       -1.41030530       1.31738319       0.62400638
C       -1.97986394       2.50991894       0.16326257
C       -3.31843294       2.80933259       0.40350580
C       -4.11653931       1.93896937       1.13300510
C       -3.54968922       0.78043931       1.64201754
C       -2.21538335       0.47662642       1.39371036
H        3.62317781       0.52595870       2.86697022
H        3.05324214       2.08990716       3.45928499
H        2.07292186       0.63136246       3.72987032
H        2.33336380       2.37565108      -0.09109474
H        3.74002324       1.43377959       0.48039579
H        3.31159151       2.96027107       1.27268683
H        0.37702704       0.54903855       2.42102850
H        0.44516475       1.67611000      -0.41531690
H        0.08489507      -0.31608451      -0.42451704
H       -1.38854786       3.23703759      -0.38764982
H       -3.75252235       3.72464555       0.01555172
H       -5.16686656       2.15905663       1.30291883
H       -4.15783940       0.09429379       2.22043112
H       -1.79871529      -0.43601454       1.80938572
C        2.39497035      -1.21735451      -1.54112434
C        1.13640863      -1.93387085      -1.98536806
N       -0.09154894      -1.50650387      -1.23594113
C       -0.52495034      -2.60429728      -0.32783882
C        0.48353883      -2.95788523       0.74754620
C       -1.20396196      -1.27711924      -2.20334801
C       -0.99852237      -0.07017827      -3.09737878
H        3.25331075      -1.59549198      -2.10081887
H        2.58349434      -1.37973944      -0.47778705
H        2.30569307      -0.14586059      -1.73587379
H        1.23849540      -3.01371353      -1.86522283
H        0.96963728      -1.76084155      -3.04707289
H       -0.72662941      -3.47936681      -0.95473015
H       -1.47282138      -2.30430286       0.12119368
H        0.72807274      -2.08523050       1.35688110
H        1.40557338      -3.37373789       0.33730444
H        0.05212752      -3.71920373       1.39881501
H       -1.30686104      -2.18827057      -2.80284504
H       -2.12481974      -1.16394941      -1.62992623
H       -0.91361375       0.83711086      -2.49804365
H       -0.11733239      -0.16439859      -3.73449785
H       -1.86149954       0.03748834      -3.75754243
47
Properties=species:S:1:pos:R:3 Converted=T from=T ColabReaction_Et3N_reactant.gjf=T charge=1 spin=1 pbc="F F F"
C        2.73437399       1.13708393       3.02967744
N        2.06719092       1.35727561       1.73873703
C        2.90764443       2.07251122       0.77784600
C        0.84407313       0.95496021       1.52419580
C        0.04895542       1.00278832       0.34036603
C       -1.41002133       1.31522570       0.62213235
C       -1.97865613       2.50837402       0.16174086
C       -3.31687823       2.80850944       0.40317097
C       -4.11564952       1.93860990       1.13298187
C       -3.54905485       0.77942821       1.64186866
C       -2.21489312       0.47442353       1.39257150
H        3.62202793       0.52560711       2.86591517
H        3.05102716       2.09044901       3.45706750
H        2.07116896       0.63117672       3.72899294
H        2.33242223       2.37511678      -0.09219854
H        3.73955235       1.43264479       0.47961526
H        3.30992315       2.95913279       1.27317828
H        0.37593648       0.54602804       2.41967241
H        0.44621694       1.67171914      -0.41953240
H        0.08529364      -0.31492122      -0.42291567
H       -1.38689332       3.23572137      -0.38877905
H       -3.75036888       3.72441881       0.01589052
H       -5.16607131       2.15923339       1.30300908
H       -4.15732070       0.09391867       2.22119132
H       -1.79855120      -0.43826115       1.80910229
C        2.39499607      -1.21611272      -1.54023470
C        1.13599616      -1.93251472      -1.98427404
N       -0.09160126      -1.50499239      -1.23459069
C       -0.52510688      -2.60276041      -0.32687496
C        0.48380617      -2.95677510       0.74805513
C       -1.20393791      -1.27578366      -2.20190303
C       -0.99861929      -0.06916660      -3.09656790
H        3.25247762      -1.59521903      -2.10066691
H        2.58413407      -1.37879372      -0.47686925
H        2.30657181      -0.14434290      -1.73508660
H        1.23669020      -3.01243419      -1.86293047
H        0.96810431      -1.75876810      -3.04578545
H       -0.72599055      -3.47649890      -0.95583719
H       -1.47309141      -2.30287204       0.12235979
H        0.72906008      -2.08452904       1.35797536
H        1.40541212      -3.37264519       0.33667178
H        0.05209032      -3.71847941       1.39866614
H       -1.30475310      -2.18779846      -2.80019791
H       -2.12519344      -1.16282228      -1.62890820
H       -0.91352919       0.83877541      -2.49788558
H       -0.11732500      -0.16428686      -3.73365273
H       -1.86163904       0.03764597      -3.75696019
47
Properties=species:S:1:pos:R:3 Converted=T from=T ColabReaction_Et3N_reactant.gjf=T charge=1 spin=1 pbc="F F F"
C        2.73068045       1.13524247       3.02671524
N        2.06581442       1.35188696       1.73548727
C        2.90512520       2.06921181       0.77484852
C        0.84219210       0.95192596       1.52290302
C        0.05013223       1.00070879       0.33829290
C       -1.40952951       1.30866020       0.61675785
C       -1.97517221       2.50308403       0.15670460
C       -3.31223531       2.80538930       0.40198732
C       -4.11196404       1.93701853       1.13276278
C       -3.54694899       0.77590191       1.64109974
C       -2.21348553       0.46747683       1.38845097
H        3.61846243       0.52427891       2.86303764
H        3.04359033       2.09185130       3.44974032
H        2.06552856       0.63067580       3.72561076
H        2.32965173       2.37304434      -0.09536263
H        3.73773700       1.42943987       0.47668899
H        3.30453830       2.95515698       1.27407353
H        0.37219442       0.53606744       2.41488963
H        0.44980770       1.65719322      -0.43267895
H        0.08568036      -0.31126191      -0.41749694
H       -1.38128436       3.23037494      -0.39243616
H       -3.74285136       3.72346231       0.01705549
H       -5.16258831       2.15973607       1.30340201
H       -4.15533344       0.09284842       2.22361404
H       -1.79806975      -0.44548395       1.80771068
C        2.39496703      -1.21218424      -1.53734065
C        1.13436058      -1.92756713      -1.98013132
N       -0.09178393      -1.49866928      -1.22943780
C       -0.52548935      -2.59732538      -0.32376873
C        0.48451645      -2.95315851       0.74966691
C       -1.20373973      -1.27111915      -2.19704235
C       -0.99886814      -0.06582385      -3.09384674
H        3.24963021      -1.59406485      -2.09990769
H        2.58629167      -1.37534314      -0.47410575
H        2.30961870      -0.13969977      -1.73219526
H        1.23137599      -3.00807898      -1.85591968
H        0.96347390      -1.75209209      -3.04130640
H       -0.72432432      -3.46755382      -0.95882881
H       -1.47364485      -2.29806652       0.12609875
H        0.73231654      -2.08250081       1.36155631
H        1.40473853      -3.36876405       0.33479934
H        0.05212531      -3.71591748       1.39830939
H       -1.29850223      -2.18608659      -2.79198237
H       -2.12606798      -1.15893965      -1.62541995
H       -0.91329974       0.84425822      -2.49769861
H       -0.11751198      -0.16352364      -3.73061955
H       -1.86185510       0.03833020      -3.75473764
47
Properties=species:S:1:pos:R:3 Converted=T from=T ColabReaction_Et3N_reactant.gjf=T charge=1 spin=1 pbc="F F F"
C        2.72715632       1.13259851       3.02249497
N        2.06861111       1.34811368       1.73319482
C        2.90111820       2.06505056       0.77213548
C        0.83513717       0.94693103       1.51928552
C        0.05074329       0.99501956       0.33419139
C       -1.40929015       1.30294798       0.61312443
C       -1.97353277       2.49645108       0.15024353
C       -3.30875839       2.79976240       0.39921489
C       -4.10798145       1.93365520       1.13222216
C       -3.54418084       0.77040093       1.64107219
C       -2.21167043       0.46019563       1.38471325
H        3.61596966       0.52231772       2.86052514
H        3.03617767       2.09230320       3.44158651
H        2.06096074       0.63002879       3.72045134
H        2.32747961       2.37113459      -0.09743512
H        3.73503972       1.42736371       0.47162369
H        3.29977311       2.95035438       1.27340691
H        0.36878879       0.52590544       2.40828099
H        0.45405190       1.64287250      -0.44531866
H        0.08371720      -0.30794419      -0.41167821
H       -1.37624537       3.22042180      -0.39751181
H       -3.73512451       3.71958000       0.01671636
H       -5.15630792       2.15826351       1.30393173
H       -4.15155962       0.09216355       2.22761302
H       -1.79694348      -0.45162110       1.80684693
C        2.39477260      -1.20876255      -1.53343398
C        1.13203067      -1.92096461      -1.97412654
N       -0.09221121      -1.48814090      -1.22208836
C       -0.52626314      -2.59016232      -0.32079770
C        0.48372116      -2.94917605       0.75128711
C       -1.20307235      -1.26456909      -2.19226607
C       -0.99830655      -0.06137081      -3.09088095
H        3.24654847      -1.59298886      -2.09737616
H        2.58852961      -1.37148400      -0.47096074
H        2.31402606      -0.13612521      -1.72739003
H        1.22678995      -3.00274790      -1.84968984
H        0.96004125      -1.74492419      -3.03541586
H       -0.72477166      -3.45828286      -0.96035348
H       -1.47404761      -2.29155378       0.12958404
H        0.73497598      -2.08129996       1.36546429
H        1.40242207      -3.36426494       0.33353146
H        0.05097744      -3.71254288       1.39814899
H       -1.29371861      -2.18250958      -2.78458530
H       -2.12590643      -1.15287151      -1.62172177
H       -0.91209942       0.85100504      -2.49881267
H       -0.11715747      -0.16118987      -3.72701877
H       -1.86041036       0.04065637      -3.75202914
47
Properties=species:S:1:pos:R:3 Converted=T from=T ColabReaction_Et3N_reactant.gjf=T charge=1 spin=1 pbc="F F F"
C        2.72496044       1.12923283       3.01655288
N        2.06493422       1.34217626       1.72927431
C        2.89671919       2.05992175       0.76980759
C        0.83263667       0.94172241       1.51371435
C        0.04967631       0.98767800       0.32807451
C       -1.40954673       1.29682153       0.61017794
C       -1.97351319       2.48639696       0.14157558
C       -3.30644299       2.79036079       0.39416761
C       -4.10195417       1.92646264       1.13140494
C       -3.54001076       0.76353762       1.64129963
C       -2.20939193       0.45178663       1.38142545
H        3.61438692       0.51957589       2.85818070
H        3.02821966       2.09144145       3.43161796
H        2.05701519       0.62893179       3.71265912
H        2.32500149       2.36954345      -0.09905317
H        3.73103713       1.42646781       0.46302431
H        3.29538574       2.94405065       1.27052192
H        0.36475642       0.51404975       2.39976227
H        0.45937463       1.62671861      -0.45868107
H        0.07903854      -0.30665445      -0.40591546
H       -1.37133928       3.20430551      -0.40572620
H       -3.72678649       3.71171949       0.01389729
H       -5.14711838       2.15425890       1.30479300
H       -4.14545853       0.09111864       2.23478977
H       -1.79444649      -0.45754573       1.80713242
C        2.39437820      -1.20551138      -1.52751114
C        1.12929870      -1.91184721      -1.96544714
N       -0.09322547      -1.47134745      -1.21120046
C       -0.52795165      -2.58040690      -0.31706143
C        0.48099682      -2.94416795       0.75318050
C       -1.20225857      -1.25471614      -2.18727340
C       -0.99642408      -0.05496962      -3.08733381
H        3.24287198      -1.59217626      -2.09229867
H        2.59111264      -1.36693124      -0.46666493
H        2.32068062      -0.13330946      -1.71965139
H        1.22226444      -2.99561971      -1.84340333
H        0.95756761      -1.73615477      -3.02718978
H       -0.72795551      -3.44728201      -0.96031762
H       -1.47453700      -2.28193620       0.13322886
H        0.73707740      -2.08082336       1.37033272
H        1.39769346      -3.35864531       0.33290980
H        0.04792474      -3.70776747       1.39819213
H       -1.29010254      -2.17609954      -2.77714537
H       -2.12444616      -1.14323126      -1.61737968
H       -0.90942484       0.86027478      -2.50153216
H       -0.11593993      -0.15672990      -3.72238199
H       -1.85673448       0.04531919      -3.74852933
47
Properties=species:S:1:pos:R:3 Converted=T from=T ColabReaction_Et3N_reactant.gjf=T charge=1 spin=1 pbc="F F F"
C        2.72198832       1.12489400       3.01026608
N        2.06203942       1.33693998       1.72606091
C        2.89079471       2.05309044       0.76806719
C        0.82617841       0.93474290       1.50697803
C        0.04742387       0.98361299       0.32186889
C       -1.41061090       1.29223708       0.60900710
C       -1.97422302       2.47579647       0.13289891
C       -3.30363704       2.78048102       0.38852375
C       -4.09333286       1.91834165       1.12983490
C       -3.53563825       0.75476563       1.63937740
C       -2.20771881       0.44247501       1.37577406
H        3.61322972       0.51556624       2.85893890
H        3.01809700       2.09007038       3.42096340
H        2.05172174       0.62806956       3.70273926
H        2.32338565       2.36544717      -0.10002409
H        3.72638053       1.42658235       0.45272417
H        3.29088760       2.93733310       1.26428930
H        0.35838275       0.49971287       2.38773912
H        0.46651668       1.61038212      -0.47155632
H        0.06663978      -0.30597230      -0.39879042
H       -1.36297899       3.18368343      -0.41402808
H       -3.71474911       3.70531883       0.01239751
H       -5.13358465       2.15138546       1.30688345
H       -4.13896294       0.08972239       2.24095513
H       -1.79249969      -0.46508767       1.80289539
C        2.39337425      -1.20160776      -1.52146572
C        1.12640067      -1.90155490      -1.95540209
N       -0.09472948      -1.45357709      -1.19941766
C       -0.52896245      -2.57054016      -0.31304235
C        0.47866422      -2.93861390       0.75528442
C       -1.20153098      -1.24468500      -2.18202910
C       -0.99500019      -0.04834490      -3.08260113
H        3.23832090      -1.58967771      -2.08692989
H        2.59481634      -1.35961340      -0.46299758
H        2.32798233      -0.13043952      -1.71074211
H        1.22178460      -2.98778623      -1.83968218
H        0.95674094      -1.72743219      -3.01801881
H       -0.73290212      -3.43919005      -0.95610307
H       -1.47302916      -2.27128098       0.13734552
H        0.74045676      -2.08109042       1.37603746
H        1.39367714      -3.35080287       0.33296778
H        0.04660506      -3.70204206       1.39925720
H       -1.29044159      -2.16872087      -2.77148857
H       -2.12109849      -1.13284182      -1.61096243
H       -0.90774376       0.87059264      -2.50535030
H       -0.11584856      -0.15021326      -3.71640808
H       -1.85326639       0.04987133      -3.74303528
47
Properties=species:S:1:pos:R:3 Converted=T from=T ColabReaction_Et3N_reactant.gjf=T charge=1 spin=1 pbc="F F F"
C        2.71701344       1.12140271       3.00511057
N        2.05467869       1.32930091       1.72053354
C        2.88591789       2.04691191       0.76503914
C        0.82410810       0.92716689       1.50009420
C        0.04631631       0.98051446       0.31645563
C       -1.40967699       1.28536131       0.60379311
C       -1.97134776       2.46644123       0.12732667
C       -3.29745641       2.77505000       0.38429094
C       -4.08572837       1.91297794       1.12842173
C       -3.53155191       0.74823503       1.63528726
C       -2.20659789       0.43346419       1.36932323
H        3.61017867       0.51241675       2.86070160
H        3.00755182       2.08944143       3.41199864
H        2.04407462       0.62690513       3.69582534
H        2.32034734       2.35972786      -0.10246337
H        3.72218660       1.42489348       0.44568550
H        3.28531381       2.93142599       1.25937743
H        0.35200319       0.48638858       2.37664194
H        0.47164431       1.59366417      -0.48315615
H        0.05752118      -0.30355866      -0.39028516
H       -1.35335772       3.16796921      -0.42014012
H       -3.70271415       3.70407034       0.01380654
H       -5.12226064       2.15185591       1.30984494
H       -4.13469608       0.08772168       2.24339784
H       -1.79186029      -0.47412699       1.79459901
C        2.39296007      -1.19604451      -1.51656699
C        1.12399754      -1.89204286      -1.94706511
N       -0.09583802      -1.44601125      -1.19299526
C       -0.52909991      -2.56188672      -0.30860160
C        0.47895292      -2.93318943       0.75743823
C       -1.20074550      -1.23730800      -2.17498157
C       -0.99501923      -0.04293516      -3.07789754
H        3.23475282      -1.58644558      -2.08452886
H        2.59872756      -1.35211761      -0.45938649
H        2.33286649      -0.12521649      -1.70463653
H        1.22079697      -2.97811499      -1.83531029
H        0.95484095      -1.71926075      -3.00909979
H       -0.73482533      -3.43045496      -0.95117815
H       -1.47203514      -2.26305669       0.14287048
H        0.74483373      -2.07973940       1.38138239
H        1.39307206      -3.34336132       0.33225647
H        0.04803553      -3.69763410       1.40076542
H       -1.28991788      -2.16198749      -2.76405524
H       -2.11994374      -1.12524326      -1.60385472
H       -0.90835674       0.87931205      -2.50683003
H       -0.11636303      -0.14525556      -3.71116496
H       -1.85329991       0.05237261      -3.73806989
47
Properties=species:S:1:pos:R:3 Converted=T from=T ColabReaction_Et3N_reactant.gjf=T charge=1 spin=1 pbc="F F F"
C        2.70995619       1.11776088       3.00025885
N        2.04836268       1.32096295       1.71368663
C        2.88082127       2.04094908       0.76090289
C        0.82217091       0.91697576       1.49210315
C        0.04561890       0.97612524       0.31017653
C       -1.40809448       1.27600688       0.59721250
C       -1.96544287       2.45823234       0.12281209
C       -3.29070883       2.77121567       0.38091338
C       -4.07740500       1.91001083       1.12541841
C       -3.52830057       0.74194412       1.63023937
C       -2.20417196       0.42537214       1.36166490
H        3.60609701       0.50977614       2.86448771
H        2.99699262       2.08819274       3.40456545
H        2.03517351       0.62503474       3.69056312
H        2.31570569       2.35254858      -0.10613528
H        3.71781753       1.42213609       0.43972335
H        3.27978936       2.92603799       1.25370862
H        0.34592634       0.47436779       2.36452084
H        0.47492081       1.57896399      -0.49156348
H        0.04860242      -0.30152839      -0.38125649
H       -1.34314718       3.15275931      -0.42585611
H       -3.69109162       3.70572208       0.01617380
H       -5.11153408       2.15408905       1.31457037
H       -4.13075495       0.08514333       2.24299405
H       -1.79139440      -0.48438499       1.78228954
C        2.39352577      -1.18892202      -1.51157681
C        1.12271158      -1.88254853      -1.93952910
N       -0.09718537      -1.44534314      -1.19009348
C       -0.52914777      -2.55444803      -0.30305006
C        0.48085518      -2.92777879       0.76010746
C       -1.20056726      -1.23099560      -2.16726075
C       -0.99578887      -0.03761137      -3.07311639
H        3.23210557      -1.58245668      -2.08329969
H        2.60305113      -1.34408212      -0.45504113
H        2.33636230      -0.11825906      -1.69966139
H        1.22138639      -2.96632775      -1.83185040
H        0.95379639      -1.71120296      -2.99994784
H       -0.73663780      -3.42244474      -0.94262167
H       -1.47142913      -2.25536618       0.14974161
H        0.74943342      -2.07729589       1.38676085
H        1.39465588      -3.33582877       0.33174917
H        0.05135366      -3.69380458       1.40311606
H       -1.29190762      -2.15370380      -2.75681750
H       -2.11963713      -1.11816817      -1.59549158
H       -0.91060494       0.88776090      -2.50688713
H       -0.11681087      -0.13995045      -3.70635491
H       -1.85542982       0.05436341      -3.73304948
47
Properties=species:S:1:pos:R:3 Converted=T from=T ColabReaction_Et3N_reactant.gjf=T charge=1 spin=1 pbc="F F F"
C        2.70261158       1.11400781       2.99610769
N        2.04523270       1.31241189       1.70646343
C        2.87632196       2.03628091       0.75513296
C        0.82142935       0.90603093       1.48342517
C        0.04554427       0.96737359       0.30360496
C       -1.40544354       1.26674117       0.58890912
C       -1.96008945       2.44988677       0.11932072
C       -3.28248516       2.76918341       0.37618300
C       -4.07194661       1.90702215       1.12282457
C       -3.52383161       0.73733026       1.62508414
C       -2.20234630       0.41758198       1.35620216
H        3.60161323       0.50809445       2.86882056
H        2.98837446       2.08562533       3.39915217
H        2.02697905       0.62207155       3.68711311
H        2.30906675       2.34602803      -0.11101191
H        3.71351462       1.41846299       0.43409503
H        3.27554798       2.92162641       1.24793927
H        0.34149050       0.46500851       2.35352552
H        0.47563079       1.56940032      -0.49611438
H        0.04215642      -0.30231897      -0.37501917
H       -1.33436061       3.13921907      -0.43329710
H       -3.68291485       3.70674518       0.01708051
H       -5.10264494       2.15593565       1.32038348
H       -4.12676908       0.08165199       2.24185017
H       -1.78959895      -0.49430622       1.76971269
C        2.39562126      -1.18113702      -1.50581936
C        1.12307588      -1.87369896      -1.93324748
N       -0.09874790      -1.44835330      -1.18916841
C       -0.53014728      -2.54855570      -0.29624762
C        0.48312246      -2.92295278       0.76364081
C       -1.20145438      -1.22457981      -2.16041595
C       -0.99638505      -0.03160823      -3.06921342
H        3.23080127      -1.57879904      -2.08174392
H        2.60716055      -1.33722461      -0.44913222
H        2.33900444      -0.11034474      -1.69524418
H        1.22301707      -2.95458007      -1.82899553
H        0.95418800      -1.70291404      -2.99199266
H       -0.73985197      -3.41579071      -0.93167896
H       -1.47223052      -2.24747469       0.15738611
H        0.75270462      -2.07380444       1.39191709
H        1.39673653      -3.32948862       0.33186247
H        0.05457222      -3.69064036       1.40588358
H       -1.29675960      -2.14378921      -2.75107207
H       -2.12019403      -1.11032664      -1.58707965
H       -0.91310190       0.89610678      -2.50566006
H       -0.11624247      -0.13422078      -3.70258194
H       -1.85797170       0.05708182      -3.72888447
47
Properties=species:S:1:pos:R:3 Converted=T from=T ColabReaction_Et3N_reactant.gjf=T charge=1 spin=1 pbc="F F F"
C        2.70003256       1.11278241       2.99629002
N        2.04607645       1.30915149       1.70328444
C        2.87598052       2.03630681       0.75151211
C        0.82422391       0.90166254       1.48042688
C        0.04638730       0.96023604       0.30008183
C       -1.40449249       1.26200111       0.58619178
C       -1.95680750       2.44905220       0.11838167
C       -3.28159477       2.76948657       0.37557019
C       -4.07073914       1.90841442       1.12061999
C       -3.52349841       0.73739442       1.62416948
C       -2.20024998       0.41719950       1.35501794
H        3.59976181       0.50865989       2.87177345
H        2.98811138       2.08296516       3.40072591
H        2.02514241       0.61982800       3.68847041
H        2.30456097       2.34423506      -0.11384538
H        3.71227254       1.41640354       0.43291528
H        3.27586943       2.92156396       1.24533344
H        0.34238012       0.46599139       2.35159464
H        0.47214526       1.57352921      -0.49122095
H        0.04316042      -0.30748017      -0.37764033
H       -1.33374874       3.13683514      -0.43683194
H       -3.68447672       3.70740127       0.01578530
H       -5.10269744       2.15671794       1.32400679
H       -4.12510052       0.08007459       2.23888242
H       -1.78771947      -0.49711677       1.76433841
C        2.39799538      -1.17773603      -1.50337697
C        1.12525614      -1.87182008      -1.93298652
N       -0.09950405      -1.45435196      -1.19161241
C       -0.53132869      -2.54896091      -0.29264572
C        0.48465278      -2.92224644       0.76583079
C       -1.20306752      -1.22288502      -2.15932367
C       -0.99661122      -0.02911171      -3.06897920
H        3.23229118      -1.57749040      -2.08100986
H        2.60823655      -1.33621213      -0.44578047
H        2.33840193      -0.10672836      -1.69483661
H        1.22594549      -2.95116446      -1.82956846
H        0.95667098      -1.70034818      -2.99132348
H       -0.74278271      -3.41673824      -0.92421491
H       -1.47383389      -2.24525327       0.16096835
H        0.75212732      -2.07140495       1.39306580
H        1.39852626      -3.32890859       0.33294333
H        0.05629527      -3.69071741       1.40767753
H       -1.30307182      -2.13884333      -2.75188176
H       -2.12143405      -1.10725550      -1.58419071
H       -0.91476374       0.89801142      -2.50350388
H       -0.11535798      -0.13174571      -3.70259728
H       -1.85962353       0.05861552      -3.72848764
47
Properties=species:S:1:pos:R:3 Converted=T from=T ColabReaction_Et3N_reactant.gjf=T charge=1 spin=1 pbc="F F F"
C        2.69672076       1.11043657       2.99623114
N        2.04945345       1.30477214       1.69961413
C        2.87486725       2.03534450       0.74598101
C        0.82549552       0.89552512       1.47580516
C        0.04789910       0.94761476       0.29442706
C       -1.40252246       1.25685013       0.58176707
C       -1.95470440       2.44550527       0.11560683
C       -3.27876034       2.76886154       0.37326827
C       -4.07011610       1.90801008       1.11967949
C       -3.52097551       0.73734141       1.62270564
C       -2.19911687       0.41438499       1.35365504
H        3.59726635       0.50861146       2.87466826
H        2.98659037       2.07939700       3.40153826
H        2.02230676       0.61656469       3.68884102
H        2.29817982       2.34197804      -0.11783602
H        3.71032673       1.41333869       0.42934489
H        3.27548356       2.92043609       1.24142402
H        0.34363876       0.46526916       2.34898896
H        0.46809343       1.57792551      -0.48738064
H        0.04541645      -0.31432208      -0.38205406
H       -1.33219255       3.13234994      -0.44379918
H       -3.68571003       3.70539187       0.01313639
H       -5.10127344       2.15665700       1.32845542
H       -4.12212634       0.07786779       2.23600162
H       -1.78449738      -0.50156107       1.75810571
C        2.40064742      -1.17286796      -1.49910230
C        1.12751262      -1.86860803      -1.93164671
N       -0.10061156      -1.45687146      -1.19166814
C       -0.53333003      -2.54823786      -0.28762351
C        0.48589514      -2.92052571       0.76930246
C       -1.20528307      -1.21887572      -2.15763336
C       -0.99662157      -0.02453631      -3.06801145
H        3.23373456      -1.57516538      -2.07829959
H        2.60998262      -1.33427127      -0.44071064
H        2.33898717      -0.10153035      -1.69272465
H        1.22973537      -2.94763232      -1.82911670
H        0.96002281      -1.69485919      -2.99034149
H       -0.74806784      -3.41792097      -0.91474756
H       -1.47569015      -2.24058380       0.16654080
H        0.75137622      -2.06792896       1.39546596
H        1.39955409      -3.32741386       0.33460822
H        0.05807751      -3.69015354       1.41029579
H       -1.31173721      -2.13190876      -2.75272056
H       -2.12265719      -1.10092614      -1.57999389
H       -0.91632856       0.90200048      -2.50087725
H       -0.11446165      -0.12758071      -3.70165439
H       -1.86047958       0.06184720      -3.72751652
47
Properties=species:S:1:pos:R:3 Converted=T from=T ColabReaction_Et3N_reactant.gjf=T charge=1 spin=1 pbc="F F F"
C        2.69334982       1.10695140       2.99571670
N        2.05042166       1.29781136       1.69437926
C        2.87337484       2.03295066       0.73863788
C        0.82903929       0.88813891       1.47029899
C        0.04987824       0.93124517       0.28543561
C       -1.40049480       1.24890967       0.57681142
C       -1.95167949       2.43982123       0.10893000
C       -3.27669802       2.76532173       0.37049648
C       -4.06738799       1.90693471       1.11887036
C       -3.51790249       0.73573732       1.62182998
C       -2.19636119       0.40966478       1.35029057
H        3.59443001       0.50730797       2.87770078
H        2.98336641       2.07487505       3.40158799
H        2.01801859       0.61198051       3.68768339
H        2.28972236       2.33892669      -0.12299941
H        3.70760116       1.40934337       0.42212371
H        3.27419563       2.91783474       1.23531275
H        0.34521064       0.46204496       2.34570500
H        0.46335719       1.58169773      -0.48436121
H        0.04887513      -0.32253707      -0.38849568
H       -1.33024761       3.12434664      -0.45468214
H       -3.68624724       3.70040245       0.00837416
H       -5.09844002       2.15561360       1.33400676
H       -4.11723903       0.07505043       2.23306557
H       -1.77994655      -0.50822258       1.75096585
C        2.40313597      -1.16648005      -1.49260381
C        1.12970006      -1.86402877      -1.92895855
N       -0.10224934      -1.45635986      -1.18983681
C       -0.53640024      -2.54604917      -0.28124418
C        0.48641373      -2.91736696       0.77416916
C       -1.20815022      -1.21221288      -2.15513003
C       -0.99642171      -0.01745146      -3.06576126
H        3.23513999      -1.57123707      -2.07276315
H        2.61254823      -1.33086677      -0.43373458
H        2.34126563      -0.09461193      -1.68812585
H        1.23484177      -2.94366132      -1.82767097
H        0.96471326      -1.68580294      -2.98845947
H       -0.75652596      -3.41930814      -0.90242072
H       -1.47735631      -2.23284942       0.17456327
H        0.75046821      -2.06329487       1.39950977
H        1.39947867      -3.32454467       0.33723608
H        0.05998374      -3.68872695       1.41425303
H       -1.32358214      -2.12224946      -2.75350199
H       -2.12357876      -1.09021725      -1.57424030
H       -0.91770749       0.90877801      -2.49778496
H       -0.11366177      -0.12106403      -3.69935085
H       -1.86025188       0.06745454      -3.72582859
47
Properties=species:S:1:pos:R:3 Converted=T from=T ColabReaction_Et3N_reactant.gjf=T charge=1 spin=1 pbc="F F F"
C        2.69093126       1.10425826       2.99496915
N        2.05146803       1.29378936       1.69165512
C        2.87144104       2.02957072       0.73386751
C        0.82840668       0.88241349       1.46659766
C        0.05161843       0.92235333       0.27943887
C       -1.39866987       1.24397868       0.57289624
C       -1.95020436       2.43476327       0.10316109
C       -3.27435979       2.76200878       0.36858336
C       -4.06446264       1.90540303       1.12003553
C       -3.51511424       0.73389382       1.62078480
C       -2.19502730       0.40483043       1.34655381
H        3.59262669       0.50506366       2.87893351
H        2.97923301       2.07277154       3.40056110
H        2.01407768       0.60912549       3.68536752
H        2.28482101       2.33601000      -0.12606501
H        3.70578445       1.40649374       0.41562507
H        3.27180467       2.91489212       1.23068831
H        0.34629505       0.45733503       2.34326349
H        0.46111246       1.58116470      -0.48536219
H        0.05210459      -0.32425718      -0.39134628
H       -1.32812008       3.11840160      -0.46261539
H       -3.68442403       3.69611142       0.00536784
H       -5.09502121       2.15506196       1.33703676
H       -4.11422467       0.07304196       2.23123173
H       -1.77763731      -0.51362358       1.74605523
C        2.40329347      -1.16220873      -1.48818997
C        1.13005213      -1.86109570      -1.92657154
N       -0.10331686      -1.45430092      -1.18795270
C       -0.53817203      -2.54371648      -0.27771144
C        0.48619102      -2.91440584       0.77738299
C       -1.20983836      -1.20748886      -2.15287900
C       -0.99666796      -0.01248804      -3.06299050
H        3.23540836      -1.56712296      -2.06783239
H        2.61444490      -1.32727090      -0.42964798
H        2.34369766      -0.08994026      -1.68384244
H        1.23835238      -2.94172502      -1.82595022
H        0.96763053      -1.67851654      -2.98661898
H       -0.76256852      -3.42021883      -0.89475003
H       -1.47697230      -2.22709456       0.18051029
H        0.75054695      -2.06017692       1.40284675
H        1.39874024      -3.32139555       0.33921915
H        0.06186501      -3.68713986       1.41743345
H       -1.33129723      -2.11630071      -2.75321649
H       -2.12357076      -1.08187039      -1.57012404
H       -0.91858456       0.91409465      -2.49578562
H       -0.11423230      -0.11622393      -3.69653596
H       -1.85946131       0.07175073      -3.72407815
47
Properties=species:S:1:pos:R:3 Converted=T from=T ColabReaction_Et3N_reactant.gjf=T charge=1 spin=1 pbc="F F F"
C        2.68730497       1.09943686       2.99284739
N        2.04980953       1.28652931       1.68712663
C        2.86763290       2.02192142       0.72631276
C        0.82786688       0.87283395       1.46067846
C        0.05407272       0.91206922       0.27088069
C       -1.39543442       1.23519710       0.56511846
C       -1.94766188       2.42458076       0.09181572
C       -3.26937900       2.75492608       0.36498285
C       -4.05823479       1.90232488       1.12366088
C       -3.50956521       0.72898121       1.61896745
C       -2.19235269       0.39526190       1.33843936
H        3.58975165       0.49958669       2.88014039
H        2.97008780       2.07010964       3.39787993
H        2.00625986       0.60437931       3.67955873
H        2.27734321       2.32992399      -0.13070707
H        3.70256192       1.40155635       0.40221759
H        3.26613411       2.90830471       1.22181924
H        0.34816408       0.44624622       2.33910181
H        0.45877041       1.57675297      -0.49071136
H        0.05887957      -0.32332572      -0.39520187
H       -1.32456155       3.10724737      -0.47702245
H       -3.67923128       3.68751896      -0.00007762
H       -5.08740509       2.15406193       1.34144094
H       -4.10949062       0.06919862       2.22859050
H       -1.77474062      -0.52362623       1.73780993
C        2.40183560      -1.15506874      -1.48036162
C        1.12975315      -1.85652968      -1.92213808
N       -0.10507245      -1.45102037      -1.18533167
C       -0.54096743      -2.53902299      -0.27248863
C        0.48493902      -2.90841727       0.78272158
C       -1.21252675      -1.19926907      -2.14851528
C       -0.99745004      -0.00370369      -3.05681901
H        3.23536050      -1.55834780      -2.05778975
H        2.61751223      -1.31967305      -0.42313889
H        2.34867012      -0.08214532      -1.67487347
H        1.24413962      -2.93844449      -1.82244680
H        0.97248737      -1.66503763      -2.98225275
H       -0.77335646      -3.42082736      -0.88206838
H       -1.47460000      -2.21650422       0.19124055
H        0.75117863      -2.05491051       1.40915498
H        1.39658296      -3.31456648       0.34305775
H        0.06554779      -3.68350186       1.42362518
H       -1.34421383      -2.10618602      -2.75134282
H       -2.12289906      -1.06594545      -1.56284747
H       -0.91990144       0.92425084      -2.49218765
H       -0.11613519      -0.10727305      -3.69030646
H       -1.85746681       0.08014670      -3.72056067
47
Properties=species:S:1:pos:R:3 Converted=T from=T ColabReaction_Et3N_reactant.gjf=T charge=1 spin=1 pbc="F F F"
C        2.68582701       1.09713061       2.99134333
N        2.04966217       1.28438245       1.68582393
C        2.86534108       2.01703170       0.72345787
C        0.82570055       0.86803924       1.45885838
C        0.05498991       0.91324735       0.26952022
C       -1.39410031       1.23096125       0.56079033
C       -1.94619514       2.41935415       0.08585919
C       -3.26706245       2.75068108       0.36354319
C       -4.05384850       1.90088400       1.12631569
C       -3.50705076       0.72588146       1.61823324
C       -2.19048572       0.39066550       1.33364737
H        3.58873545       0.49591554       2.87988024
H        2.96485118       2.06957817       3.39664743
H        2.00244137       0.60240063       3.67575917
H        2.27492959       2.32624043      -0.13207723
H        3.70106645       1.39920807       0.39463795
H        3.26267789       2.90437141       1.21717329
H        0.34988454       0.43972190       2.33742222
H        0.45873052       1.57308723      -0.49528489
H        0.06380828      -0.32020364      -0.39696917
H       -1.32414695       3.10223435      -0.48389765
H       -3.67601364       3.68282843      -0.00307205
H       -5.08336205       2.15372678       1.34285789
H       -4.10806977       0.06692730       2.22749388
H       -1.77451310      -0.52816235       1.73434537
C        2.39987682      -1.15224405      -1.47678659
C        1.12935898      -1.85549133      -1.92053669
N       -0.10572370      -1.45161670      -1.18582593
C       -0.54198186      -2.53708427      -0.27085611
C        0.48375593      -2.90532540       0.78490479
C       -1.21376437      -1.19602515      -2.14650768
C       -0.99813450       0.00026729      -3.05311945
H        3.23540950      -1.55288108      -2.05199954
H        2.61818079      -1.31542675      -0.42055839
H        2.35082318      -0.07906820      -1.66974121
H        1.24675365      -2.93726467      -1.82108363
H        0.97486762      -1.65894110      -2.97975019
H       -0.77856330      -3.42069303      -0.87658173
H       -1.47208842      -2.21158529       0.19624355
H        0.75141129      -2.05256571       1.41204202
H        1.39514864      -3.31062818       0.34536377
H        0.06764115      -3.68120242       1.42717844
H       -1.35028644      -2.10185621      -2.74971163
H       -2.12214998      -1.05773934      -1.55963643
H       -0.92045811       0.92913142      -2.48992167
H       -0.11758540      -0.10281612      -3.68659367
H       -1.85628905       0.08492330      -3.71883122
47
Properties=species:S:1:pos:R:3 Converted=T from=T ColabReaction_Et3N_reactant.gjf=T charge=1 spin=1 pbc="F F F"
C        2.68435935       1.09495641       2.98959704
N        2.04794784       1.28164525       1.68428507
C        2.86322596       2.01183461       0.72082416
C        0.82546036       0.86384315       1.45746989
C        0.05540948       0.91870852       0.27072524
C       -1.39293688       1.22672458       0.55496879
C       -1.94467849       2.41409970       0.08086398
C       -3.26324522       2.74718754       0.36166398
C       -4.04963293       1.89980873       1.12912116
C       -3.50405414       0.72247777       1.61684778
C       -2.18887243       0.38636830       1.32879595
H        3.58729252       0.49212890       2.87991515
H        2.95926766       2.06880862       3.39612553
H        1.99841125       0.60038694       3.67186983
H        2.27259802       2.32134396      -0.13335925
H        3.69925113       1.39649079       0.38695544
H        3.25914482       2.90019447       1.21194976
H        0.35194596       0.43274116       2.33588856
H        0.45946356       1.56979750      -0.50017168
H        0.06973323      -0.31698430      -0.39922596
H       -1.32474357       3.09780820      -0.49065872
H       -3.67270136       3.67869928      -0.00598171
H       -5.07864829       2.15404294       1.34447147
H       -4.10748169       0.06387558       2.22564744
H       -1.77514940      -0.53262331       1.72969651
C        2.39787920      -1.14929422      -1.47321623
C        1.12976900      -1.85514528      -1.91975180
N       -0.10614468      -1.45555203      -1.18815426
C       -0.54259000      -2.53613187      -0.26895866
C        0.48303144      -2.90235002       0.78706200
C       -1.21537652      -1.19357946      -2.14458866
C       -0.99921323       0.00404791      -3.04920963
H        3.23605479      -1.54639718      -2.04615474
H        2.61786856      -1.31080626      -0.41773358
H        2.35154238      -0.07597768      -1.66452627
H        1.24971166      -2.93561297      -1.82083559
H        0.97753641      -1.65392332      -2.97723396
H       -0.78361535      -3.42038763      -0.87034054
H       -1.46900460      -2.20697286       0.20125479
H        0.75135121      -2.04996554       1.41447972
H        1.39454630      -3.30627148       0.34804537
H        0.07045233      -3.67847910       1.43133778
H       -1.35727359      -2.09749817      -2.74770692
H       -2.12142775      -1.04965134      -1.55602387
H       -0.92159264       0.93358732      -2.48645653
H       -0.11899076      -0.09815356      -3.68262956
H       -1.85588092       0.09014941      -3.71694425
47
Properties=species:S:1:pos:R:3 Converted=T from=T ColabReaction_Et3N_reactant.gjf=T charge=1 spin=1 pbc="F F F"
C        2.68350366       1.09419874       2.98903180
N        2.04792803       1.28057910       1.68376773
C        2.86248188       2.01001483       0.71994052
C        0.82541365       0.86259271       1.45733047
C        0.05557378       0.92154558       0.27164715
C       -1.39300178       1.22517942       0.55278455
C       -1.94369939       2.41293594       0.07953177
C       -3.26192144       2.74646896       0.36137997
C       -4.04774137       1.90001882       1.12945807
C       -3.50348825       0.72134856       1.61605116
C       -2.18816141       0.38522294       1.32679552
H        3.58635710       0.49103521       2.88025227
H        2.95718638       2.06831202       3.39627480
H        1.99689188       0.59973172       3.67066553
H        2.27169938       2.31892587      -0.13397313
H        3.69842943       1.39521040       0.38475955
H        3.25799958       2.89882870       1.21003810
H        0.35267047       0.43024359       2.33513026
H        0.46019767       1.56918599      -0.50177864
H        0.07187390      -0.31579299      -0.39978496
H       -1.32524957       3.09662094      -0.49252690
H       -3.67130782       3.67802528      -0.00658036
H       -5.07682604       2.15477345       1.34533257
H       -4.10758123       0.06258117       2.22419893
H       -1.77581046      -0.53427611       1.72709438
C        2.39743172      -1.14807291      -1.47211310
C        1.13040412      -1.85522825      -1.91989652
N       -0.10608680      -1.45774946      -1.18922877
C       -0.54242716      -2.53639268      -0.26800952
C        0.48340584      -2.90149350       0.78784462
C       -1.21614610      -1.19321282      -2.14397285
C       -0.99986161       0.00513656      -3.04788811
H        3.23658557      -1.54370848      -2.04448042
H        2.61719181      -1.30907179      -0.41658259
H        2.35066941      -0.07477471      -1.66299137
H        1.25107725      -2.93505821      -1.82151012
H        0.97849749      -1.65302523      -2.97676067
H       -0.78505989      -3.42057950      -0.86784489
H       -1.46776878      -2.20569410       0.20287380
H        0.75125394      -2.04885206       1.41496919
H        1.39516184      -3.30460185       0.34902221
H        0.07193545      -3.67736562       1.43298328
H       -1.36022029      -2.09628967      -2.74702458
H       -2.12121166      -1.04740712      -1.55439461
H       -0.92247382       0.93459477      -2.48457093
H       -0.11943389      -0.09656173      -3.68120000
H       -1.85634249       0.09189753      -3.71604516
47
Properties=species:S:1:pos:R:3 Converted=T from=T ColabReaction_Et3N_reactant.gjf=T charge=1 spin=1 pbc="F F F"
C        2.68311942       1.09390305       2.98886601
N        2.04784303       1.27996878       1.68349829
C        2.86225270       2.00938933       0.71954406
C        0.82566027       0.86227516       1.45727272
C        0.05568335       0.92224116       0.27179242
C       -1.39303614       1.22469482       0.55193380
C       -1.94341422       2.41260683       0.07915061
C       -3.26129545       2.74640226       0.36123623
C       -4.04714666       1.90010544       1.12947059
C       -3.50324219       0.72100068       1.61559904
C       -2.18807880       0.38477205       1.32607680
H        3.58588850       0.49072595       2.88050022
H        2.95639595       2.06800885       3.39636598
H        1.99627141       0.59945777       3.67027703
H        2.27123835       2.31788274      -0.13432295
H        3.69806380       1.39462917       0.38408034
H        3.25763808       2.89837029       1.20930611
H        0.35285138       0.42928919       2.33477158
H        0.46055497       1.56914074      -0.50226228
H        0.07255558      -0.31542840      -0.39990159
H       -1.32536121       3.09622440      -0.49319785
H       -3.67073872       3.67793825      -0.00669400
H       -5.07604419       2.15517136       1.34576420
H       -4.10763071       0.06204031       2.22348825
H       -1.77605423      -0.53498914       1.72586180
C        2.39738582      -1.14751665      -1.47169433
C        1.13073923      -1.85519732      -1.91997537
N       -0.10602025      -1.45840458      -1.18946360
C       -0.54229498      -2.53654157      -0.26753685
C        0.48373152      -2.90120065       0.78818593
C       -1.21646771      -1.19309175      -2.14371779
C       -1.00013831       0.00553938      -3.04742294
H        3.23685049      -1.54265077      -2.04395603
H        2.61683735      -1.30841005      -0.41604885
H        2.35008655      -0.07423495      -1.66249156
H        1.25169486      -2.93488732      -1.82191411
H        0.97885959      -1.65283667      -2.97672922
H       -0.78555316      -3.42077104      -0.86681580
H       -1.46734638      -2.20523448       0.20347328
H        0.75121072      -2.04834890       1.41509666
H        1.39561119      -3.30395717       0.34937380
H        0.07257786      -3.67692562       1.43362744
H       -1.36147224      -2.09588688      -2.74681497
H       -2.12114549      -1.04669755      -1.55364320
H       -0.92291500       0.93486031      -2.48373380
H       -0.11956262      -0.09595038      -3.68065876
H       -1.85664329       0.09252357      -3.71561732
47
Properties=species:S:1:pos:R:3 Converted=T from=T ColabReaction_Et3N_reactant.gjf=T charge=1 spin=1 pbc="F F F"
C        2.68209874       1.09323043       2.98858685
N        2.04809971       1.27832398       1.68300701
C        2.86191508       2.00799036       0.71875632
C        0.82657460       0.86254398       1.45774816
C        0.05610074       0.92517918       0.27264771
C       -1.39361262       1.22411792       0.55002100
C       -1.94282072       2.41277308       0.07883598
C       -3.25994163       2.74699545       0.36114654
C       -4.04566655       1.90070712       1.12876520
C       -3.50323010       0.72023943       1.61407161
C       -2.18815452       0.38413898       1.32423127
H        3.58444998       0.49028430       2.88138808
H        2.95453590       2.06693928       3.39702734
H        1.99485346       0.59884230       3.66945926
H        2.27014111       2.31443673      -0.13531139
H        3.69696095       1.39276744       0.38315512
H        3.25721361       2.89750606       1.20749981
H        0.35319283       0.42686221       2.33373051
H        0.46245306       1.56991514      -0.50317244
H        0.07398993      -0.31414509      -0.39969263
H       -1.32618728       3.09596464      -0.49423918
H       -3.66917248       3.67863930      -0.00654320
H       -5.07383559       2.15685497       1.34708613
H       -4.10820898       0.06037542       2.22089760
H       -1.77719528      -0.53670244       1.72197367
C        2.39750975      -1.14616200      -1.47091409
C        1.13210001      -1.85554589      -1.92079591
N       -0.10544645      -1.46035570      -1.19012345
C       -0.54136882      -2.53756311      -0.26631181
C        0.48533432      -2.90079876       0.78894944
C       -1.21734090      -1.19348419      -2.14322786
C       -1.00104984       0.00612386      -3.04638808
H        3.23804876      -1.53953084      -2.04306727
H        2.61475785      -1.30682093      -0.41448445
H        2.34675408      -0.07301659      -1.66157993
H        1.25362678      -2.93500583      -1.82422976
H        0.97974932      -1.65400703      -2.97754722
H       -0.78624135      -3.42177517      -0.86435271
H       -1.46607726      -2.20460577       0.20439510
H        0.75086715      -2.04683479       1.41475527
H        1.39788296      -3.30227721       0.35029941
H        0.07455134      -3.67557907       1.43545824
H       -1.36509549      -2.09565971      -2.74641657
H       -2.12086556      -1.04594746      -1.55136705
H       -0.92449741       0.93449458      -2.48072299
H       -0.11970566      -0.09451788      -3.67922861
H       -1.85804753       0.09408933      -3.71417601
47
Properties=species:S:1:pos:R:3 Converted=T from=T ColabReaction_Et3N_reactant.gjf=T charge=1 spin=1 pbc="F F F"
C        2.67976297       1.09110388       2.98782123
N        2.04875523       1.27408618       1.68152665
C        2.86089382       2.00418372       0.71618710
C        0.82813383       0.86236031       1.45785000
C        0.05748538       0.92931298       0.27279564
C       -1.39413767       1.22244219       0.54553865
C       -1.94193926       2.41195985       0.07663849
C       -3.25694728       2.74739178       0.36022527
C       -4.04235512       1.90115027       1.12768319
C       -3.50253685       0.71803362       1.61050591
C       -2.18833554       0.38156937       1.31953136
H        3.58144704       0.48868645       2.88334926
H        2.94979529       2.06419946       3.39809541
H        1.99115284       0.59680169       3.66695554
H        2.26687420       2.30631117      -0.13797101
H        3.69424514       1.38801518       0.37965646
H        3.25612067       2.89496871       1.20259685
H        0.35410151       0.42054925       2.33092037
H        0.46664165       1.57131395      -0.50536359
H        0.07753153      -0.31186187      -0.40001621
H       -1.32769956       3.09427350      -0.49848175
H       -3.66551998       3.67913352      -0.00715723
H       -5.06825949       2.16024143       1.35046022
H       -4.10874873       0.05627104       2.21520885
H       -1.77907330      -0.54151726       1.71305237
C        2.39751512      -1.14259349      -1.46826134
C        1.13483437      -1.85574198      -1.92201047
N       -0.10425373      -1.46287148      -1.19066219
C       -0.53961615      -2.53879460      -0.26331001
C        0.48863634      -2.89919069       0.79116925
C       -1.21931991      -1.19314105      -2.14156618
C       -1.00291936       0.00841646      -3.04338820
H        3.24086208      -1.53171959      -2.03968986
H        2.61000957      -1.30272757      -0.41017298
H        2.33956405      -0.06966973      -1.65837244
H        1.25834627      -2.93523106      -1.82904445
H        0.98219263      -1.65540340      -2.97913106
H       -0.78883245      -3.42388772      -0.85802918
H       -1.46317509      -2.20192762       0.20734378
H        0.75003725      -2.04275461       1.41460069
H        1.40265796      -3.29794849       0.35282105
H        0.07892245      -3.67214956       1.44016102
H       -1.37423277      -2.09414000      -2.74518843
H       -2.12002649      -1.04259651      -1.54551962
H       -0.92788069       0.93461925      -2.47361836
H       -0.12008038      -0.09026387      -3.67528076
H       -1.86062938       0.09873693      -3.71045932
47
Properties=species:S:1:pos:R:3 Converted=T from=T ColabReaction_Et3N_reactant.gjf=T charge=1 spin=1 pbc="F F F"
C        2.67894051       1.08999998       2.98763654
N        2.04929940       1.27237131       1.68091498
C        2.86062059       2.00257281       0.71493753
C        0.82841211       0.86228763       1.45757672
C        0.05832947       0.92984776       0.27190698
C       -1.39411320       1.22208521       0.54421305
C       -1.94182259       2.41167327       0.07527679
C       -3.25644596       2.74740172       0.35972059
C       -4.04125263       1.90110171       1.12703621
C       -3.50248546       0.71703330       1.60887795
C       -2.18833826       0.38040564       1.31732552
H        3.58057730       0.48794586       2.88421509
H        2.94801062       2.06288123       3.39852055
H        1.98964493       0.59563421       3.66586238
H        2.26534751       2.30267995      -0.13919794
H        3.69313622       1.38567225       0.37820385
H        3.25611635       2.89391394       1.20037180
H        0.35435946       0.41804680       2.32945963
H        0.46874588       1.57216965      -0.50579437
H        0.07861246      -0.31123983      -0.40027810
H       -1.32836488       3.09359566      -0.50065175
H       -3.66418978       3.67937712      -0.00761665
H       -5.06610056       2.16170024       1.35209826
H       -4.10875586       0.05451664       2.21266712
H       -1.77963554      -0.54367585       1.70931858
C        2.39732178      -1.14111801      -1.46704725
C        1.13581547      -1.85584148      -1.92256390
N       -0.10357074      -1.46282570      -1.19045597
C       -0.53877155      -2.53889278      -0.26226010
C        0.49013544      -2.89834940       0.79213481
C       -1.22000642      -1.19279715      -2.14065808
C       -1.00361533       0.00943715      -3.04189822
H        3.24227865      -1.52808489      -2.03783394
H        2.60731111      -1.30106947      -0.40813450
H        2.33577587      -0.06827656      -1.65675926
H        1.26040051      -2.93568663      -1.83131138
H        0.98324954      -1.65633432      -2.98015418
H       -0.78975986      -3.42474981      -0.85560911
H       -1.46192825      -2.20064925       0.20843898
H        0.74962573      -2.04063844       1.41445427
H        1.40493691      -3.29607099       0.35404608
H        0.08067610      -3.67052157       1.44226584
H       -1.37812267      -2.09354389      -2.74443976
H       -2.11942994      -1.04124726      -1.54273936
H       -0.92923442       0.93443948      -2.47022797
H       -0.12017580      -0.08820982      -3.67333223
H       -1.86156024       0.10103254      -3.70851610
47
Properties=species:S:1:pos:R:3 Converted=T from=T ColabReaction_Et3N_reactant.gjf=T charge=1 spin=1 pbc="F F F"
C        2.67753830       1.08711142       2.98737484
N        2.05065044       1.26873864       1.67952816
C        2.86039570       1.99895411       0.71187507
C        0.82889963       0.86195104       1.45615316
C        0.06046234       0.92899301       0.26860193
C       -1.39338292       1.22213613       0.54190814
C       -1.94249990       2.41100779       0.07163924
C       -3.25620338       2.74715033       0.35782924
C       -4.03996674       1.90034656       1.12544214
C       -3.50223054       0.71465458       1.60475872
C       -2.18856050       0.37767063       1.31238578
H        3.57960267       0.48616960       2.88618526
H        2.94471295       2.05956943       3.39951000
H        1.98659471       0.59229199       3.66339290
H        2.26176233       2.29429300      -0.14206337
H        3.69080817       1.37976595       0.37498960
H        3.25722862       2.89155839       1.19499057
H        0.35462025       0.41307808       2.32568752
H        0.47409139       1.57470050      -0.50565047
H        0.08014423      -0.31088299      -0.40148985
H       -1.33010980       3.09220684      -0.50640590
H       -3.66205631       3.67985748      -0.00918895
H       -5.06192544       2.16484862       1.35620223
H       -4.10841997       0.05039485       2.20693795
H       -1.78033233      -0.54852449       1.70121558
C        2.39633828      -1.13797402      -1.46413091
C        1.13774117      -1.85623044      -1.92401541
N       -0.10172473      -1.46124327      -1.18959644
C       -0.53663350      -2.53831200      -0.26035326
C        0.49355870      -2.89603332       0.79428449
C       -1.22120135      -1.19160232      -2.13824166
C       -1.00490880       0.01185068      -3.03804482
H        3.24592133      -1.51924133      -2.03258025
H        2.59966301      -1.29762701      -0.40317724
H        2.32568266      -0.06532133      -1.65253326
H        1.26488669      -2.93723630      -1.83674153
H        0.98564632      -1.65913953      -2.98303987
H       -0.79132923      -3.42620615      -0.85083577
H       -1.45912463      -2.19747848       0.21048440
H        0.74855426      -2.03510719       1.41391265
H        1.41039517      -3.29179862       0.35723469
H        0.08431024      -3.66641361       1.44711103
H       -1.38662636      -2.09214639      -2.74207117
H       -2.11759764      -1.03831372      -1.53590213
H       -0.93195058       0.93364476      -2.46174889
H       -0.12018325      -0.08305942      -3.66838945
H       -1.86324168       0.10694752      -3.70343467
47
Properties=species:S:1:pos:R:3 Converted=T from=T ColabReaction_Et3N_reactant.gjf=T charge=1 spin=1 pbc="F F F"
C        2.67718152       1.08501454       2.98735827
N        2.05165128       1.26710709       1.67878571
C        2.86067558       1.99671024       0.70987830
C        0.82900617       0.86102327       1.45447304
C        0.06185743       0.92655203       0.26537767
C       -1.39254422       1.22276478       0.54123590
C       -1.94330244       2.41066638       0.06872936
C       -3.25745575       2.74658183       0.35611915
C       -4.04009521       1.89951276       1.12424730
C       -3.50233387       0.71312558       1.60198056
C       -2.18832533       0.37613382       1.30923577
H        3.58013925       0.48499796       2.88729261
H        2.94363841       2.05731747       3.40011288
H        1.98527563       0.58951765       3.66200118
H        2.25978903       2.28935081      -0.14375155
H        3.68977001       1.37569293       0.37322117
H        3.25905461       2.89005893       1.19136732
H        0.35433484       0.41112909       2.32298334
H        0.47760497       1.57657868      -0.50435538
H        0.08002744      -0.31137100      -0.40276329
H       -1.33145429       3.09150677      -0.51054012
H       -3.66184324       3.67994578      -0.01060477
H       -5.06070492       2.16647750       1.35902287
H       -4.10777684       0.04796411       2.20349566
H       -1.78014309      -0.55118910       1.69688466
C        2.39485348      -1.13636848      -1.46232497
C        1.13846071      -1.85681915      -1.92519731
N       -0.10035175      -1.45941663      -1.18912123
C       -0.53509281      -2.53715986      -0.25984169
C        0.49548823      -2.89405292       0.79545745
C       -1.22148417      -1.19057337      -2.13639445
C       -1.00537551       0.01337694      -3.03508914
H        3.24834209      -1.51326342      -2.02814485
H        2.59350502      -1.29594915      -0.40018710
H        2.31823776      -0.06386233      -1.64941205
H        1.26719248      -2.93866604      -1.83991187
H        0.98698760      -1.66132278      -2.98523534
H       -0.79144705      -3.42637327      -0.84896367
H       -1.45735522      -2.19540068       0.21119392
H        0.74795857      -2.03108288       1.41341657
H        1.41367451      -3.28921797       0.35966277
H        0.08617486      -3.66347097       1.44987775
H       -1.39098033      -2.09128664      -2.73982832
H       -2.11596371      -1.03672087      -1.53131774
H       -0.93305521       0.93288883      -2.45588838
H       -0.12010354      -0.07952947      -3.66484017
H       -1.86369299       0.11110123      -3.69969774
