47
Properties=species:S:1:pos:R:3:forces:R:3 charge=1 spin=1 energy=-20036.029654768176 stress="0.18783570694975804 0.09273337908042346 -0.06024102168790779 0.09273337908042346 1.4384503610494688 0.934495151543713 -0.06024102168790779 0.934495151543713 1.246890258159541" free_energy=-20036.029654768176 pbc="F F F"
C        2.67748662       1.08495349       2.98716277       0.00029474      -0.01670614       0.00095610
N        2.05188425       1.26711937       1.67868549      -0.01531548       0.02079706      -0.00489677
C        2.86075624       1.99684471       0.70980553       0.00084924      -0.03227910      -0.00391162
C        0.82908550       0.86105486       1.45441100      -0.04053114      -0.08170306      -0.09844249
C        0.06189350       0.92677210       0.26565915      -0.00370266      -0.13901487      -0.08801697
C       -1.39256168       1.22257513       0.54129941       0.04659671      -0.01615464      -0.03309012
C       -1.94361058       2.41022360       0.06839383       0.00460413      -0.04019897      -0.01430114
C       -3.25780950       2.74599729       0.35574389       0.00332666      -0.01034098      -0.03777611
C       -4.04026304       1.89907415       1.12423390      -0.03476955      -0.01574550       0.03669847
C       -3.50221886       0.71299141       1.60241084       0.00694577      -0.01015066      -0.02475181
C       -2.18816194       0.37613600       1.30971154       0.01386614      -0.01276269      -0.01977685
H        3.58045210       0.48495644       2.88703405       0.03130331      -0.01887792      -0.00323445
H        2.94401081       2.05719287       3.40005211       0.00658171       0.00475897      -0.01091385
H        1.98567750       0.58938646       3.66186353       0.00343055      -0.02625127      -0.00122288
H        2.25972013       2.28978864      -0.14363289       0.02762782       0.01268241       0.00308919
H        3.68974135       1.37585636       0.37279920       0.02949926      -0.01450288      -0.01606867
H        3.25936303       2.89006815       1.19137072       0.00370440      -0.03477623      -0.02475761
H        0.35448081       0.41136175       2.32305337      -0.01920953       0.01935510      -0.01114336
H        0.47755958       1.57660607      -0.50427002      -0.02345111      -0.04508013       0.01871836
H        0.07996642      -0.31259469      -0.40385275      -0.02568539       0.06227943       0.03629651
H       -1.33193124       3.09104040      -0.51107979       0.01547502       0.00669166      -0.03178729
H       -3.66240924       3.67914266      -0.01129890      -0.02765004       0.00975700      -0.01192194
H       -5.06092728       2.16589235       1.35897156      -0.02965597      -0.00694774      -0.00529949
H       -4.10748882       0.04793086       2.20422414       0.00829198      -0.00360592       0.00227232
H       -1.77976220      -0.55092143       1.69776844       0.00912732      -0.01130486       0.01193410
C        2.39495669      -1.13652440      -1.46200327      -0.05990715      -0.00610101      -0.00157658
C        1.13848568      -1.85667629      -1.92503883      -0.02648890       0.00652563       0.01049201
N       -0.10038997      -1.45900238      -1.18897500      -0.01296332      -0.04348275      -0.02789534
C       -0.53539642      -2.53687135      -0.25977744       0.01289261       0.05160122      -0.02311028
C        0.49507832      -2.89403391       0.79550848      -0.02068312       0.04340010      -0.00704763
C       -1.22145512      -1.19010238      -2.13647381       0.02453089       0.01567692       0.05058775
C       -1.00505296       0.01372853      -3.03522345       0.00124140       0.00430269       0.04670767
H        3.24839053      -1.51360831      -2.02777509      -0.00849574       0.03775518       0.05763535
H        2.59347180      -1.29620944      -0.39986423      -0.02284237       0.00512773      -0.03356046
H        2.31859338      -0.06400752      -1.64906303      -0.00392736       0.00422994       0.02300298
H        1.26687457      -2.93854923      -1.83973866      -0.03766607       0.02958574       0.05639888
H        0.98706854      -1.66109844      -2.98505905      -0.01189213       0.03563245       0.03285127
H       -0.79180072      -3.42588832      -0.84913824       0.04370191       0.07091706      -0.02476723
H       -1.45764357      -2.19498138       0.21116464       0.02590068       0.00101476       0.00258509
H        0.74767518      -2.03116448       1.41352828       0.03211363       0.01807832       0.01696308
H        1.41318678      -3.28939081       0.35973141      -0.02433616       0.01356837       0.02907829
H        0.08554845      -3.66341653       1.44982977       0.01046586       0.01563669      -0.00937694
H       -1.39083994      -2.09089412      -2.73977915       0.05954126       0.02551966       0.06037775
H       -2.11596164      -1.03615372      -1.53148376       0.01555831       0.01581715       0.01378731
H       -0.93264295       0.93325767      -2.45608047       0.01793968       0.02768945       0.01837231
H       -0.11976716      -0.07937285      -3.66492117      -0.01729564       0.01638622       0.02497606
H       -1.86331295       0.11151070      -3.69988804       0.01105749       0.01120040       0.01486738
