47
Properties=species:S:1:pos:R:3:forces:R:3 charge=1 spin=1 energy=-20036.401926987055 stress="0.1562347103288899 -0.9007447162712166 -1.223469140101397 -0.9007447162712166 -1.2150723818446827 -1.8537136514650472 -1.223469140101397 -1.8537136514650472 -0.9145787536368973" free_energy=-20036.401926987055 pbc="F F F"
C        2.82144287       1.09066907       2.94740409       0.10224223      -0.06264969       0.15597898
N        2.13976641       1.33542796       1.69108046       0.40261465      -0.05158471       0.01220798
C        2.91444260       2.08697616       0.72415494       0.04338657       0.00711830      -0.08920283
C        0.86700034       0.95823620       1.50798874      -0.25549793       0.17194305       0.30070111
C        0.05529318       1.13401184       0.43778987      -0.05211532       0.40500683      -0.19861776
C       -1.41132027       1.24563094       0.63227173      -0.01662948       0.20568229       0.06336013
C       -2.07208796       2.31777000       0.01541357      -0.06604595      -0.16891991      -0.06009955
C       -3.41441836       2.56914306       0.25705052      -0.04980223      -0.07536307      -0.05037878
C       -4.13242962       1.75935127       1.12787144       0.02280823      -0.08168216       0.06459118
C       -3.48928757       0.70290769       1.76289024      -0.02659125      -0.03166411      -0.09285249
C       -2.14605116       0.44766582       1.51505873       0.03252298      -0.13012198      -0.08614577
H        3.71882389       0.48829399       2.79051842       0.01326517      -0.03435899       0.00424496
H        3.13133840       2.03126529       3.41457331      -0.07195895      -0.03661919      -0.09570687
H        2.17025652       0.56453902       3.64299892      -0.02146784       0.00261950      -0.07042365
H        2.28341029       2.47951211      -0.07101935       0.00571370      -0.04603016       0.07039294
H        3.70020458       1.46512044       0.28192491      -0.05225991       0.03594631      -0.02001040
H        3.40048675       2.93494395       1.21915352      -0.08829614      -0.12569419      -0.02323386
H        0.41202289       0.54077646       2.39899937       0.05960929      -0.03405931       0.13704668
H        0.44575197       1.69295994      -0.40796005      -0.02013613      -0.04118811      -0.06711226
H        0.03777030      -0.64561403      -0.70344594       0.66231859       2.35242629       1.61763370
H       -1.51799353       2.99058186      -0.63250976       0.01241931      -0.08831237       0.02610547
H       -3.89914804       3.40857599      -0.23055738       0.04295436      -0.07370718       0.05633955
H       -5.18049020       1.95050468       1.31908790       0.03871041       0.01446373      -0.00482367
H       -4.03618475       0.06542829       2.45131249       0.05595063       0.10192695      -0.06686874
H       -1.66366250      -0.37623954       2.03760620      -0.01892940       0.06141728      -0.05914248
C        2.42246769      -1.24106901      -1.39332224      -0.08233592       0.01642053       0.04111020
C        1.15502231      -1.87624009      -1.91997080      -0.26353437      -0.27992049      -0.12871079
N       -0.12288749      -1.44664456      -1.23405042      -0.27344760      -1.98614550      -1.33900249
C       -0.63545956      -2.50289250      -0.29022437      -0.04555987      -0.02710504      -0.28958446
C        0.34541223      -2.92452591       0.78118971      -0.02272075      -0.00342389      -0.00092596
C       -1.20349978      -1.09642212      -2.22194023       0.07694937      -0.23098418      -0.01349818
C       -0.88686151       0.08494117      -3.11325747      -0.01271439      -0.00047216       0.02933113
H        3.26894008      -1.67133092      -1.93266608      -0.06704739       0.04697977       0.04835486
H        2.56778863      -1.42931963      -0.33108106      -0.00856303       0.04285138       0.04455825
H        2.42190878      -0.16747395      -1.57155217       0.01368117       0.08544630       0.05798078
H        1.17931572      -2.95892727      -1.82890728       0.09557886      -0.08011092      -0.01603354
H        1.02860121      -1.65539890      -2.97339351       0.05541997       0.03473920      -0.08457182
H       -0.89722190      -3.33658882      -0.93845677      -0.07608685      -0.15845264       0.05014414
H       -1.55413908      -2.10856062       0.13881083       0.00805280       0.07003282       0.06177541
H        0.63300636      -2.08864050       1.41511107       0.02626576       0.07833055       0.04053857
H        1.24318576      -3.38893442       0.37475120      -0.00820171       0.02872865      -0.01377926
H       -0.14554252      -3.66987948       1.40743928       0.01787532       0.04062760       0.00659233
H       -1.34480583      -2.00643991      -2.79689452      -0.16418035      -0.09025712      -0.18239099
H       -2.10232437      -0.91186210      -1.63872267      -0.04148610       0.04820891       0.04856194
H       -0.77946163       1.00323452      -2.54024250       0.01591165       0.04629846       0.06132464
H       -0.00019671      -0.06183071      -3.72900814      -0.00442672       0.00386161       0.03544114
H       -1.72818541       0.21636725      -3.79326876       0.00578452       0.03775033       0.01880025
