47
Properties=species:S:1:pos:R:3 charge=1 spin=1 pbc="F F F"
C        2.68264260       1.09057732       2.98070441
N        2.05309131       1.27261675       1.67409023
C        2.85728955       2.00535134       0.70353816
C        0.83099422       0.86305142       1.45233447
C        0.06128958       0.92725355       0.26512817
C       -1.39323297       1.22017244       0.54344567
C       -1.94775187       2.40635121       0.07089935
C       -3.26210143       2.73949251       0.36066795
C       -4.04121290       1.89137764       1.13123871
C       -3.49969714       0.70672007       1.60904604
C       -2.18551179       0.37248928       1.31393965
H        3.58778257       0.49441811       2.87719828
H        2.94623683       2.06311008       3.39477962
H        1.99452524       0.59085911       3.65613976
H        2.25066924       2.30543529      -0.14359062
H        3.68194718       1.38398329       0.35655453
H        3.26201941       2.89449650       1.18748861
H        0.35950535       0.41163075       2.32178343
H        0.47437191       1.57765086      -0.50572116
H        0.08008878      -0.31202666      -0.40437373
H       -1.33870285       3.08812705      -0.51022287
H       -3.66943310       3.67154642      -0.00613418
H       -5.06197132       2.15616495       1.36787349
H       -4.10235352       0.04073587       2.21246560
H       -1.77436740      -0.55347087       1.70173466
C        2.39474767      -1.13463166      -1.46338428
C        1.13860471      -1.85573369      -1.92583184
N       -0.10028761      -1.45847354      -1.18957146
C       -0.53493239      -2.53660480      -0.26049891
C        0.49556973      -2.89324823       0.79492836
C       -1.22155371      -1.18967603      -2.13684799
C       -1.00548214       0.01417066      -3.03565730
H        3.24824691      -1.51120733      -2.02939604
H        2.59372671      -1.29403899      -0.40128341
H        2.31754101      -0.06218745      -1.65056228
H        1.26768792      -2.93748512      -1.84010784
H        0.98678543      -1.66070237      -2.98590043
H       -0.79077381      -3.42572617      -0.84994825
H       -1.45741890      -2.19518808       0.21030436
H        0.74750608      -2.03027761       1.41307957
H        1.41401532      -3.28797405       0.35928163
H        0.08641726      -3.66295599       1.44910379
H       -1.39095586      -2.09047448      -2.74013955
H       -2.11596417      -1.03584133      -1.53168259
H       -0.93328941       0.93375142      -2.45657159
H       -0.12018087      -0.07872970      -3.66536409
H       -1.86377962       0.11170289      -3.70030964
47
Properties=species:S:1:pos:R:3 charge=1 spin=1 pbc="F F F"
C        2.68779858       1.09620115       2.97424606
N        2.05429837       1.27811413       1.66949497
C        2.85382286       2.01385796       0.69727080
C        0.83290294       0.86504798       1.45025794
C        0.06068565       0.92773499       0.26459720
C       -1.39390426       1.21776976       0.54559193
C       -1.95189315       2.40247882       0.07340488
C       -3.26639336       2.73298774       0.36559200
C       -4.04216276       1.88368112       1.13824351
C       -3.49717542       0.70044873       1.61568125
C       -2.18286165       0.36884255       1.31816777
H        3.59511303       0.50387979       2.86736250
H        2.94846285       2.06902729       3.38950712
H        2.00337298       0.59233177       3.65041600
H        2.24161835       2.32108194      -0.14354835
H        3.67415301       1.39211022       0.34030987
H        3.26467578       2.89892484       1.18360651
H        0.36452990       0.41189975       2.32051349
H        0.47118424       1.57869565      -0.50717229
H        0.08021114      -0.31145863      -0.40489470
H       -1.34547446       3.08521369      -0.50936596
H       -3.67645697       3.66395018      -0.00096946
H       -5.06301537       2.14643755       1.37677542
H       -4.09721823       0.03354088       2.22070706
H       -1.76897261      -0.55602031       1.70570089
C        2.39453864      -1.13273892      -1.46476529
C        1.13872375      -1.85479110      -1.92662485
N       -0.10018525      -1.45794471      -1.19016792
C       -0.53446837      -2.53633825      -0.26122039
C        0.49606115      -2.89246255       0.79434824
C       -1.22165230      -1.18924969      -2.13722217
C       -1.00591133       0.01461280      -3.03609115
H        3.24810329      -1.50880634      -2.03101698
H        2.59398162      -1.29186854      -0.40270258
H        2.31648865      -0.06036739      -1.65206153
H        1.26850128      -2.93642102      -1.84047701
H        0.98650232      -1.66030630      -2.98674181
H       -0.78974690      -3.42556402      -0.85075826
H       -1.45719423      -2.19539478       0.20944408
H        0.74733698      -2.02939073       1.41263085
H        1.41484387      -3.28655730       0.35883185
H        0.08728607      -3.66249544       1.44837781
H       -1.39107178      -2.09005484      -2.74049995
H       -2.11596669      -1.03552893      -1.53188142
H       -0.93393587       0.93424518      -2.45706270
H       -0.12059459      -0.07808654      -3.66580700
H       -1.86424630       0.11189508      -3.70073124
47
Properties=species:S:1:pos:R:3 charge=1 spin=1 pbc="F F F"
C        2.69295456       1.10182498       2.96778770
N        2.05550544       1.28361150       1.66489972
C        2.85035617       2.02236459       0.69100343
C        0.83481165       0.86704454       1.44818140
C        0.06008173       0.92821644       0.26406622
C       -1.39457555       1.21536707       0.54773818
C       -1.95603444       2.39860643       0.07591040
C       -3.27068529       2.72648296       0.37051606
C       -4.04311262       1.87598461       1.14524832
C       -3.49465370       0.69417738       1.62231645
C       -2.18021150       0.36519583       1.32239588
H        3.60244350       0.51334146       2.85752673
H        2.95068887       2.07494450       3.38423463
H        2.01222072       0.59380442       3.64469223
H        2.23256746       2.33672859      -0.14350608
H        3.66635884       1.40023715       0.32406520
H        3.26733216       2.90335319       1.17972440
H        0.36955444       0.41216875       2.31924355
H        0.46799657       1.57974044      -0.50862343
H        0.08033350      -0.31089060      -0.40541568
H       -1.35224607       3.08230034      -0.50850904
H       -3.68348083       3.65635394       0.00419526
H       -5.06405941       2.13671015       1.38567735
H       -4.09208293       0.02634589       2.22894853
H       -1.76357781      -0.55856975       1.70966711
C        2.39432962      -1.13084618      -1.46614630
C        1.13884278      -1.85384850      -1.92741787
N       -0.10008288      -1.45741587      -1.19076438
C       -0.53400434      -2.53607170      -0.26194186
C        0.49655256      -2.89167687       0.79376812
C       -1.22175089      -1.18882334      -2.13759635
C       -1.00634051       0.01505493      -3.03652500
H        3.24795968      -1.50640536      -2.03263793
H        2.59423653      -1.28969809      -0.40412176
H        2.31543628      -0.05854732      -1.65356078
H        1.26931463      -2.93535691      -1.84084619
H        0.98621921      -1.65991023      -2.98758319
H       -0.78871998      -3.42540187      -0.85156827
H       -1.45696956      -2.19560148       0.20858380
H        0.74716788      -2.02850386       1.41218214
H        1.41567241      -3.28514054       0.35838207
H        0.08815487      -3.66203490       1.44765183
H       -1.39118771      -2.08963520      -2.74086036
H       -2.11596922      -1.03521654      -1.53208025
H       -0.93458234       0.93473893      -2.45755382
H       -0.12100830      -0.07744339      -3.66624992
H       -1.86471297       0.11208727      -3.70115284
47
Properties=species:S:1:pos:R:3 charge=1 spin=1 pbc="F F F"
C        2.69811055       1.10744881       2.96132935
N        2.05671250       1.28910888       1.66030446
C        2.84688948       2.03087122       0.68473607
C        0.83672037       0.86904110       1.44610487
C        0.05947781       0.92869788       0.26353525
C       -1.39524684       1.21296439       0.54988444
C       -1.96017573       2.39473405       0.07841592
C       -3.27497722       2.71997819       0.37544011
C       -4.04406248       1.86828809       1.15225312
C       -3.49213198       0.68790604       1.62895165
C       -2.17756135       0.36154910       1.32662399
H        3.60977396       0.52280314       2.84769096
H        2.95291489       2.08086172       3.37896213
H        2.02106846       0.59527708       3.63896847
H        2.22351657       2.35237523      -0.14346381
H        3.65856467       1.40836408       0.30782053
H        3.26998854       2.90778153       1.17584230
H        0.37457898       0.41243775       2.31797361
H        0.46480890       1.58078523      -0.51007456
H        0.08045586      -0.31032256      -0.40593665
H       -1.35901767       3.07938699      -0.50765213
H       -3.69050469       3.64875770       0.00935999
H       -5.06510345       2.12698275       1.39457927
H       -4.08694764       0.01915089       2.23718999
H       -1.75818302      -0.56111920       1.71363333
C        2.39412060      -1.12895344      -1.46752731
C        1.13896181      -1.85290590      -1.92821088
N       -0.09998052      -1.45688704      -1.19136084
C       -0.53354031      -2.53580515      -0.26266333
C        0.49704397      -2.89089119       0.79318800
C       -1.22184948      -1.18839699      -2.13797052
C       -1.00676970       0.01549707      -3.03695885
H        3.24781606      -1.50400437      -2.03425887
H        2.59449144      -1.28752764      -0.40554094
H        2.31438391      -0.05672725      -1.65506003
H        1.27012798      -2.93429280      -1.84121537
H        0.98593611      -1.65951416      -2.98842457
H       -0.78769307      -3.42523972      -0.85237829
H       -1.45674489      -2.19580818       0.20772353
H        0.74699878      -2.02761699       1.41173343
H        1.41650096      -3.28372378       0.35793229
H        0.08902368      -3.66157435       1.44692585
H       -1.39130363      -2.08921556      -2.74122076
H       -2.11597175      -1.03490415      -1.53227909
H       -0.93522880       0.93523269      -2.45804494
H       -0.12142202      -0.07680023      -3.66669283
H       -1.86517964       0.11227946      -3.70157444
47
Properties=species:S:1:pos:R:3 charge=1 spin=1 pbc="F F F"
C        2.70326653       1.11307264       2.95487099
N        2.05791956       1.29460626       1.65570920
C        2.84342279       2.03937785       0.67846870
C        0.83862909       0.87103766       1.44402834
C        0.05887389       0.92917933       0.26300427
C       -1.39591813       1.21056170       0.55203070
C       -1.96431702       2.39086166       0.08092144
C       -3.27926915       2.71347341       0.38036417
C       -4.04501235       1.86059158       1.15925793
C       -3.48961025       0.68163470       1.63558685
C       -2.17491121       0.35790238       1.33085210
H        3.61710443       0.53226481       2.83785518
H        2.95514091       2.08677893       3.37368964
H        2.02991620       0.59674973       3.63324470
H        2.21446568       2.36802188      -0.14342154
H        3.65077050       1.41649101       0.29157586
H        3.27264491       2.91220988       1.17196019
H        0.37960352       0.41270675       2.31670367
H        0.46162123       1.58183002      -0.51152570
H        0.08057823      -0.30975453      -0.40645763
H       -1.36578928       3.07647363      -0.50679521
H       -3.69752856       3.64116146       0.01452471
H       -5.06614750       2.11725536       1.40348120
H       -4.08181234       0.01195590       2.24543145
H       -1.75278822      -0.56366864       1.71759956
C        2.39391157      -1.12706070      -1.46890832
C        1.13908085      -1.85196331      -1.92900389
N       -0.09987816      -1.45635820      -1.19195730
C       -0.53307628      -2.53553860      -0.26338481
C        0.49753538      -2.89010551       0.79260789
C       -1.22194807      -1.18797065      -2.13834470
C       -1.00719888       0.01593920      -3.03739271
H        3.24767244      -1.50160339      -2.03587982
H        2.59474635      -1.28535719      -0.40696011
H        2.31333154      -0.05490719      -1.65655928
H        1.27094134      -2.93322869      -1.84158454
H        0.98565300      -1.65911808      -2.98926595
H       -0.78666616      -3.42507757      -0.85318830
H       -1.45652022      -2.19601488       0.20686325
H        0.74682969      -2.02673011       1.41128471
H        1.41732950      -3.28230703       0.35748251
H        0.08989249      -3.66111381       1.44619987
H       -1.39141955      -2.08879592      -2.74158116
H       -2.11597427      -1.03459175      -1.53247792
H       -0.93587526       0.93572644      -2.45853605
H       -0.12183573      -0.07615708      -3.66713575
H       -1.86564632       0.11247165      -3.70199604
47
Properties=species:S:1:pos:R:3 charge=1 spin=1 pbc="F F F"
C        2.70842251       1.11869647       2.94841264
N        2.05912662       1.30010364       1.65111394
C        2.83995610       2.04788447       0.67220134
C        0.84053781       0.87303421       1.44195181
C        0.05826996       0.92966077       0.26247329
C       -1.39658942       1.20815901       0.55417696
C       -1.96845830       2.38698927       0.08342697
C       -3.28356108       2.70696864       0.38528823
C       -4.04596221       1.85289506       1.16626274
C       -3.48708853       0.67536336       1.64222206
C       -2.17226106       0.35425566       1.33508022
H        3.62443490       0.54172649       2.82801941
H        2.95736693       2.09269614       3.36841714
H        2.03876394       0.59822239       3.62752093
H        2.20541479       2.38366853      -0.14337927
H        3.64297633       1.42461794       0.27533120
H        3.27530129       2.91663822       1.16807809
H        0.38462807       0.41297575       2.31543373
H        0.45843356       1.58287481      -0.51297684
H        0.08070059      -0.30918650      -0.40697861
H       -1.37256089       3.07356028      -0.50593829
H       -3.70455242       3.63356522       0.01968943
H       -5.06719154       2.10752796       1.41238313
H       -4.07667704       0.00476091       2.25367291
H       -1.74739342      -0.56621808       1.72156578
C        2.39370255      -1.12516796      -1.47028933
C        1.13919988      -1.85102071      -1.92979690
N       -0.09977580      -1.45582936      -1.19255376
C       -0.53261226      -2.53527205      -0.26410628
C        0.49802680      -2.88931983       0.79202777
C       -1.22204666      -1.18754430      -2.13871888
C       -1.00762806       0.01638133      -3.03782656
H        3.24752882      -1.49920240      -2.03750076
H        2.59500126      -1.28318674      -0.40837929
H        2.31227918      -0.05308712      -1.65805853
H        1.27175469      -2.93216459      -1.84195372
H        0.98536989      -1.65872201      -2.99010733
H       -0.78563925      -3.42491542      -0.85399831
H       -1.45629555      -2.19622159       0.20600297
H        0.74666059      -2.02584324       1.41083600
H        1.41815805      -3.28089027       0.35703273
H        0.09076130      -3.66065326       1.44547389
H       -1.39153547      -2.08837627      -2.74194156
H       -2.11597680      -1.03427936      -1.53267675
H       -0.93652172       0.93622020      -2.45902717
H       -0.12224945      -0.07551393      -3.66757867
H       -1.86611299       0.11266384      -3.70241764
47
Properties=species:S:1:pos:R:3 charge=1 spin=1 pbc="F F F"
C        2.71357849       1.12432030       2.94195428
N        2.06033369       1.30560102       1.64651868
C        2.83648941       2.05639110       0.66593397
C        0.84244652       0.87503077       1.43987528
C        0.05766604       0.93014222       0.26194232
C       -1.39726071       1.20575633       0.55632322
C       -1.97259959       2.38311688       0.08593249
C       -3.28785301       2.70046386       0.39021228
C       -4.04691207       1.84519855       1.17326754
C       -3.48456681       0.66909202       1.64885726
C       -2.16961091       0.35060893       1.33930833
H        3.63176536       0.55118816       2.81818364
H        2.95959295       2.09861335       3.36314465
H        2.04761168       0.59969504       3.62179717
H        2.19636390       2.39931518      -0.14333700
H        3.63518215       1.43274487       0.25908653
H        3.27795767       2.92106657       1.16419598
H        0.38965261       0.41324475       2.31416379
H        0.45524590       1.58391960      -0.51442797
H        0.08082295      -0.30861847      -0.40749958
H       -1.37933250       3.07064692      -0.50508138
H       -3.71157628       3.62596898       0.02485415
H       -5.06823558       2.09780056       1.42128506
H       -4.07154175      -0.00243408       2.26191437
H       -1.74199863      -0.56876752       1.72553200
C        2.39349353      -1.12327522      -1.47167033
C        1.13931892      -1.85007811      -1.93058992
N       -0.09967344      -1.45530053      -1.19315022
C       -0.53214823      -2.53500549      -0.26482775
C        0.49851821      -2.88853414       0.79144765
C       -1.22214525      -1.18711795      -2.13909306
C       -1.00805725       0.01682347      -3.03826041
H        3.24738521      -1.49680142      -2.03912171
H        2.59525617      -1.28101628      -0.40979847
H        2.31122681      -0.05126705      -1.65955778
H        1.27256805      -2.93110048      -1.84232290
H        0.98508678      -1.65832594      -2.99094872
H       -0.78461233      -3.42475327      -0.85480832
H       -1.45607088      -2.19642829       0.20514269
H        0.74649149      -2.02495637       1.41038729
H        1.41898659      -3.27947351       0.35658295
H        0.09163010      -3.66019272       1.44474791
H       -1.39165139      -2.08795663      -2.74230196
H       -2.11597933      -1.03396696      -1.53287558
H       -0.93716818       0.93671395      -2.45951829
H       -0.12266316      -0.07487077      -3.66802158
H       -1.86657967       0.11285603      -3.70283924
47
Properties=species:S:1:pos:R:3 charge=1 spin=1 pbc="F F F"
C        2.71873447       1.12994413       2.93549593
N        2.06154075       1.31109840       1.64192343
C        2.83302272       2.06489773       0.65966661
C        0.84435524       0.87702733       1.43779875
C        0.05706212       0.93062366       0.26141134
C       -1.39793200       1.20335364       0.55846947
C       -1.97674088       2.37924449       0.08843801
C       -3.29214495       2.69395909       0.39513634
C       -4.04786193       1.83750203       1.18027235
C       -3.48204509       0.66282067       1.65549246
C       -2.16696077       0.34696221       1.34353644
H        3.63909583       0.56064984       2.80834786
H        2.96181897       2.10453056       3.35787215
H        2.05645942       0.60116769       3.61607340
H        2.18731301       2.41496183      -0.14329473
H        3.62738798       1.44087180       0.24284186
H        3.28061404       2.92549491       1.16031387
H        0.39467715       0.41351374       2.31289385
H        0.45205823       1.58496439      -0.51587911
H        0.08094531      -0.30805044      -0.40802056
H       -1.38610411       3.06773357      -0.50422446
H       -3.71860015       3.61837275       0.03001887
H       -5.06927962       2.08807316       1.43018699
H       -4.06640645      -0.00962907       2.27015583
H       -1.73660383      -0.57131696       1.72949823
C        2.39328450      -1.12138249      -1.47305134
C        1.13943795      -1.84913551      -1.93138293
N       -0.09957108      -1.45477169      -1.19374667
C       -0.53168420      -2.53473894      -0.26554923
C        0.49900962      -2.88774846       0.79086753
C       -1.22224384      -1.18669161      -2.13946724
C       -1.00848643       0.01726560      -3.03869426
H        3.24724159      -1.49440043      -2.04074266
H        2.59551108      -1.27884583      -0.41121764
H        2.31017444      -0.04944699      -1.66105703
H        1.27338140      -2.93003637      -1.84269207
H        0.98480367      -1.65792987      -2.99179010
H       -0.78358542      -3.42459112      -0.85561833
H       -1.45584621      -2.19663499       0.20428241
H        0.74632239      -2.02406949       1.40993857
H        1.41981514      -3.27805676       0.35613317
H        0.09249891      -3.65973217       1.44402193
H       -1.39176732      -2.08753699      -2.74266236
H       -2.11598185      -1.03365457      -1.53307441
H       -0.93781465       0.93720771      -2.46000940
H       -0.12307687      -0.07422762      -3.66846450
H       -1.86704634       0.11304822      -3.70326084
47
Properties=species:S:1:pos:R:3 charge=1 spin=1 pbc="F F F"
C        2.72389045       1.13556796       2.92903757
N        2.06274781       1.31659577       1.63732817
C        2.82955603       2.07340436       0.65339924
C        0.84626396       0.87902389       1.43572221
C        0.05645820       0.93110511       0.26088037
C       -1.39860329       1.20095096       0.56061573
C       -1.98088217       2.37537210       0.09094354
C       -3.29643688       2.68745431       0.40006040
C       -4.04881179       1.82980552       1.18727716
C       -3.47952337       0.65654933       1.66212766
C       -2.16431062       0.34331548       1.34776455
H        3.64642629       0.57011151       2.79851209
H        2.96404499       2.11044777       3.35259966
H        2.06530716       0.60264035       3.61034964
H        2.17826212       2.43060848      -0.14325246
H        3.61959381       1.44899873       0.22659719
H        3.28327042       2.92992326       1.15643177
H        0.39970170       0.41378274       2.31162391
H        0.44887056       1.58600918      -0.51733024
H        0.08106767      -0.30748241      -0.40854153
H       -1.39287572       3.06482022      -0.50336755
H       -3.72562401       3.61077651       0.03518359
H       -5.07032367       2.07834576       1.43908892
H       -4.06127115      -0.01682406       2.27839730
H       -1.73120903      -0.57386640       1.73346445
C        2.39307548      -1.11948975      -1.47443235
C        1.13955698      -1.84819292      -1.93217594
N       -0.09946871      -1.45424286      -1.19434313
C       -0.53122017      -2.53447239      -0.26627070
C        0.49950104      -2.88696278       0.79028741
C       -1.22234243      -1.18626526      -2.13984142
C       -1.00891562       0.01770774      -3.03912811
H        3.24709797      -1.49199945      -2.04236360
H        2.59576599      -1.27667538      -0.41263682
H        2.30912207      -0.04762692      -1.66255628
H        1.27419475      -2.92897226      -1.84306125
H        0.98452056      -1.65753380      -2.99263148
H       -0.78255851      -3.42442897      -0.85642834
H       -1.45562154      -2.19684169       0.20342213
H        0.74615329      -2.02318262       1.40948986
H        1.42064368      -3.27664000       0.35568339
H        0.09336772      -3.65927163       1.44329595
H       -1.39188324      -2.08711735      -2.74302277
H       -2.11598438      -1.03334218      -1.53327324
H       -0.93846111       0.93770146      -2.46050052
H       -0.12349059      -0.07358446      -3.66890741
H       -1.86751301       0.11324041      -3.70368244
47
Properties=species:S:1:pos:R:3 charge=1 spin=1 pbc="F F F"
C        2.72904644       1.14119179       2.92257922
N        2.06395487       1.32209315       1.63273291
C        2.82608934       2.08191098       0.64713188
C        0.84817268       0.88102045       1.43364568
C        0.05585427       0.93158655       0.26034939
C       -1.39927458       1.19854827       0.56276199
C       -1.98502345       2.37149971       0.09344906
C       -3.30072881       2.68094954       0.40498445
C       -4.04976165       1.82210900       1.19428196
C       -3.47700165       0.65027799       1.66876287
C       -2.16166047       0.33966876       1.35199267
H        3.65375676       0.57957319       2.78867632
H        2.96627101       2.11636498       3.34732716
H        2.07415490       0.60411300       3.60462587
H        2.16921123       2.44625512      -0.14321019
H        3.61179964       1.45712566       0.21035253
H        3.28592680       2.93435161       1.15254966
H        0.40472624       0.41405174       2.31035397
H        0.44568289       1.58705397      -0.51878138
H        0.08119003      -0.30691438      -0.40906251
H       -1.39964732       3.06190686      -0.50251063
H       -3.73264788       3.60318027       0.04034831
H       -5.07136771       2.06861836       1.44799084
H       -4.05613586      -0.02401906       2.28663876
H       -1.72581424      -0.57641584       1.73743067
C        2.39286645      -1.11759701      -1.47581336
C        1.13967602      -1.84725032      -1.93296895
N       -0.09936635      -1.45371402      -1.19493959
C       -0.53075615      -2.53420584      -0.26699217
C        0.49999245      -2.88617710       0.78970729
C       -1.22244102      -1.18583891      -2.14021560
C       -1.00934480       0.01814987      -3.03956196
H        3.24695435      -1.48959846      -2.04398455
H        2.59602091      -1.27450493      -0.41405600
H        2.30806971      -0.04580686      -1.66405553
H        1.27500811      -2.92790816      -1.84343043
H        0.98423745      -1.65713773      -2.99347286
H       -0.78153160      -3.42426681      -0.85723836
H       -1.45539686      -2.19704839       0.20256186
H        0.74598419      -2.02229575       1.40904114
H        1.42147222      -3.27522324       0.35523361
H        0.09423653      -3.65881108       1.44256997
H       -1.39199916      -2.08669771      -2.74338317
H       -2.11598691      -1.03302978      -1.53347208
H       -0.93910757       0.93819522      -2.46099164
H       -0.12390430      -0.07294131      -3.66935033
H       -1.86797969       0.11343260      -3.70410404
47
Properties=species:S:1:pos:R:3 charge=1 spin=1 pbc="F F F"
C        2.72389045       1.13556796       2.92903757
N        2.06274781       1.31659577       1.63732817
C        2.82955603       2.07340436       0.65339924
C        0.84626396       0.87902389       1.43572221
C        0.05645820       0.93110511       0.26088037
C       -1.39860329       1.20095096       0.56061573
C       -1.98088217       2.37537210       0.09094354
C       -3.29643688       2.68745431       0.40006040
C       -4.04881179       1.82980552       1.18727716
C       -3.47952337       0.65654933       1.66212766
C       -2.16431062       0.34331548       1.34776455
H        3.64642629       0.57011151       2.79851209
H        2.96404499       2.11044777       3.35259966
H        2.06530716       0.60264035       3.61034964
H        2.17826212       2.43060848      -0.14325246
H        3.61959381       1.44899873       0.22659719
H        3.28327042       2.92992326       1.15643177
H        0.39970170       0.41378274       2.31162391
H        0.44887056       1.58600918      -0.51733024
H        0.08106767      -0.30748241      -0.40854153
H       -1.39287572       3.06482022      -0.50336755
H       -3.72562401       3.61077651       0.03518359
H       -5.07032367       2.07834576       1.43908892
H       -4.06127115      -0.01682406       2.27839730
H       -1.73120903      -0.57386640       1.73346445
C        2.39307548      -1.11948975      -1.47443235
C        1.13955698      -1.84819292      -1.93217594
N       -0.09946871      -1.45424286      -1.19434313
C       -0.53122017      -2.53447239      -0.26627070
C        0.49950104      -2.88696278       0.79028741
C       -1.22234243      -1.18626526      -2.13984142
C       -1.00891562       0.01770774      -3.03912811
H        3.24709797      -1.49199945      -2.04236360
H        2.59576599      -1.27667538      -0.41263682
H        2.30912207      -0.04762692      -1.66255628
H        1.27419475      -2.92897226      -1.84306125
H        0.98452056      -1.65753380      -2.99263148
H       -0.78255851      -3.42442897      -0.85642834
H       -1.45562154      -2.19684169       0.20342213
H        0.74615329      -2.02318262       1.40948986
H        1.42064368      -3.27664000       0.35568339
H        0.09336772      -3.65927163       1.44329595
H       -1.39188324      -2.08711735      -2.74302277
H       -2.11598438      -1.03334218      -1.53327324
H       -0.93846111       0.93770146      -2.46050052
H       -0.12349059      -0.07358446      -3.66890741
H       -1.86751301       0.11324041      -3.70368244
47
Properties=species:S:1:pos:R:3 charge=1 spin=1 pbc="F F F"
C        2.71873447       1.12994413       2.93549593
N        2.06154075       1.31109840       1.64192343
C        2.83302272       2.06489773       0.65966661
C        0.84435524       0.87702733       1.43779875
C        0.05706212       0.93062366       0.26141134
C       -1.39793200       1.20335364       0.55846947
C       -1.97674088       2.37924449       0.08843801
C       -3.29214495       2.69395909       0.39513634
C       -4.04786193       1.83750203       1.18027235
C       -3.48204509       0.66282067       1.65549246
C       -2.16696077       0.34696221       1.34353644
H        3.63909583       0.56064984       2.80834786
H        2.96181897       2.10453056       3.35787215
H        2.05645942       0.60116769       3.61607340
H        2.18731301       2.41496183      -0.14329473
H        3.62738798       1.44087180       0.24284186
H        3.28061404       2.92549491       1.16031387
H        0.39467715       0.41351374       2.31289385
H        0.45205823       1.58496439      -0.51587911
H        0.08094531      -0.30805044      -0.40802056
H       -1.38610411       3.06773357      -0.50422446
H       -3.71860015       3.61837275       0.03001887
H       -5.06927962       2.08807316       1.43018699
H       -4.06640645      -0.00962907       2.27015583
H       -1.73660383      -0.57131696       1.72949823
C        2.39328450      -1.12138249      -1.47305134
C        1.13943795      -1.84913551      -1.93138293
N       -0.09957108      -1.45477169      -1.19374667
C       -0.53168420      -2.53473894      -0.26554923
C        0.49900962      -2.88774846       0.79086753
C       -1.22224384      -1.18669161      -2.13946724
C       -1.00848643       0.01726560      -3.03869426
H        3.24724159      -1.49440043      -2.04074266
H        2.59551108      -1.27884583      -0.41121764
H        2.31017444      -0.04944699      -1.66105703
H        1.27338140      -2.93003637      -1.84269207
H        0.98480367      -1.65792987      -2.99179010
H       -0.78358542      -3.42459112      -0.85561833
H       -1.45584621      -2.19663499       0.20428241
H        0.74632239      -2.02406949       1.40993857
H        1.41981514      -3.27805676       0.35613317
H        0.09249891      -3.65973217       1.44402193
H       -1.39176732      -2.08753699      -2.74266236
H       -2.11598185      -1.03365457      -1.53307441
H       -0.93781465       0.93720771      -2.46000940
H       -0.12307687      -0.07422762      -3.66846450
H       -1.86704634       0.11304822      -3.70326084
47
Properties=species:S:1:pos:R:3 charge=1 spin=1 pbc="F F F"
C        2.71357849       1.12432030       2.94195428
N        2.06033369       1.30560102       1.64651868
C        2.83648941       2.05639110       0.66593397
C        0.84244652       0.87503077       1.43987528
C        0.05766604       0.93014222       0.26194232
C       -1.39726071       1.20575633       0.55632322
C       -1.97259959       2.38311688       0.08593249
C       -3.28785301       2.70046386       0.39021228
C       -4.04691207       1.84519855       1.17326754
C       -3.48456681       0.66909202       1.64885726
C       -2.16961091       0.35060893       1.33930833
H        3.63176536       0.55118816       2.81818364
H        2.95959295       2.09861335       3.36314465
H        2.04761168       0.59969504       3.62179717
H        2.19636390       2.39931518      -0.14333700
H        3.63518215       1.43274487       0.25908653
H        3.27795767       2.92106657       1.16419598
H        0.38965261       0.41324475       2.31416379
H        0.45524590       1.58391960      -0.51442797
H        0.08082295      -0.30861847      -0.40749958
H       -1.37933250       3.07064692      -0.50508138
H       -3.71157628       3.62596898       0.02485415
H       -5.06823558       2.09780056       1.42128506
H       -4.07154175      -0.00243408       2.26191437
H       -1.74199863      -0.56876752       1.72553200
C        2.39349353      -1.12327522      -1.47167033
C        1.13931892      -1.85007811      -1.93058992
N       -0.09967344      -1.45530053      -1.19315022
C       -0.53214823      -2.53500549      -0.26482775
C        0.49851821      -2.88853414       0.79144765
C       -1.22214525      -1.18711795      -2.13909306
C       -1.00805725       0.01682347      -3.03826041
H        3.24738521      -1.49680142      -2.03912171
H        2.59525617      -1.28101628      -0.40979847
H        2.31122681      -0.05126705      -1.65955778
H        1.27256805      -2.93110048      -1.84232290
H        0.98508678      -1.65832594      -2.99094872
H       -0.78461233      -3.42475327      -0.85480832
H       -1.45607088      -2.19642829       0.20514269
H        0.74649149      -2.02495637       1.41038729
H        1.41898659      -3.27947351       0.35658295
H        0.09163010      -3.66019272       1.44474791
H       -1.39165139      -2.08795663      -2.74230196
H       -2.11597933      -1.03396696      -1.53287558
H       -0.93716818       0.93671395      -2.45951829
H       -0.12266316      -0.07487077      -3.66802158
H       -1.86657967       0.11285603      -3.70283924
47
Properties=species:S:1:pos:R:3 charge=1 spin=1 pbc="F F F"
C        2.70842251       1.11869647       2.94841264
N        2.05912662       1.30010364       1.65111394
C        2.83995610       2.04788447       0.67220134
C        0.84053781       0.87303421       1.44195181
C        0.05826996       0.92966077       0.26247329
C       -1.39658942       1.20815901       0.55417696
C       -1.96845830       2.38698927       0.08342697
C       -3.28356108       2.70696864       0.38528823
C       -4.04596221       1.85289506       1.16626274
C       -3.48708853       0.67536336       1.64222206
C       -2.17226106       0.35425566       1.33508022
H        3.62443490       0.54172649       2.82801941
H        2.95736693       2.09269614       3.36841714
H        2.03876394       0.59822239       3.62752093
H        2.20541479       2.38366853      -0.14337927
H        3.64297633       1.42461794       0.27533120
H        3.27530129       2.91663822       1.16807809
H        0.38462807       0.41297575       2.31543373
H        0.45843356       1.58287481      -0.51297684
H        0.08070059      -0.30918650      -0.40697861
H       -1.37256089       3.07356028      -0.50593829
H       -3.70455242       3.63356522       0.01968943
H       -5.06719154       2.10752796       1.41238313
H       -4.07667704       0.00476091       2.25367291
H       -1.74739342      -0.56621808       1.72156578
C        2.39370255      -1.12516796      -1.47028933
C        1.13919988      -1.85102071      -1.92979690
N       -0.09977580      -1.45582936      -1.19255376
C       -0.53261226      -2.53527205      -0.26410628
C        0.49802680      -2.88931983       0.79202777
C       -1.22204666      -1.18754430      -2.13871888
C       -1.00762806       0.01638133      -3.03782656
H        3.24752882      -1.49920240      -2.03750076
H        2.59500126      -1.28318674      -0.40837929
H        2.31227918      -0.05308712      -1.65805853
H        1.27175469      -2.93216459      -1.84195372
H        0.98536989      -1.65872201      -2.99010733
H       -0.78563925      -3.42491542      -0.85399831
H       -1.45629555      -2.19622159       0.20600297
H        0.74666059      -2.02584324       1.41083600
H        1.41815805      -3.28089027       0.35703273
H        0.09076130      -3.66065326       1.44547389
H       -1.39153547      -2.08837627      -2.74194156
H       -2.11597680      -1.03427936      -1.53267675
H       -0.93652172       0.93622020      -2.45902717
H       -0.12224945      -0.07551393      -3.66757867
H       -1.86611299       0.11266384      -3.70241764
47
Properties=species:S:1:pos:R:3 charge=1 spin=1 pbc="F F F"
C        2.70326653       1.11307264       2.95487099
N        2.05791956       1.29460626       1.65570920
C        2.84342279       2.03937785       0.67846870
C        0.83862909       0.87103766       1.44402834
C        0.05887389       0.92917933       0.26300427
C       -1.39591813       1.21056170       0.55203070
C       -1.96431702       2.39086166       0.08092144
C       -3.27926915       2.71347341       0.38036417
C       -4.04501235       1.86059158       1.15925793
C       -3.48961025       0.68163470       1.63558685
C       -2.17491121       0.35790238       1.33085210
H        3.61710443       0.53226481       2.83785518
H        2.95514091       2.08677893       3.37368964
H        2.02991620       0.59674973       3.63324470
H        2.21446568       2.36802188      -0.14342154
H        3.65077050       1.41649101       0.29157586
H        3.27264491       2.91220988       1.17196019
H        0.37960352       0.41270675       2.31670367
H        0.46162123       1.58183002      -0.51152570
H        0.08057823      -0.30975453      -0.40645763
H       -1.36578928       3.07647363      -0.50679521
H       -3.69752856       3.64116146       0.01452471
H       -5.06614750       2.11725536       1.40348120
H       -4.08181234       0.01195590       2.24543145
H       -1.75278822      -0.56366864       1.71759956
C        2.39391157      -1.12706070      -1.46890832
C        1.13908085      -1.85196331      -1.92900389
N       -0.09987816      -1.45635820      -1.19195730
C       -0.53307628      -2.53553860      -0.26338481
C        0.49753538      -2.89010551       0.79260789
C       -1.22194807      -1.18797065      -2.13834470
C       -1.00719888       0.01593920      -3.03739271
H        3.24767244      -1.50160339      -2.03587982
H        2.59474635      -1.28535719      -0.40696011
H        2.31333154      -0.05490719      -1.65655928
H        1.27094134      -2.93322869      -1.84158454
H        0.98565300      -1.65911808      -2.98926595
H       -0.78666616      -3.42507757      -0.85318830
H       -1.45652022      -2.19601488       0.20686325
H        0.74682969      -2.02673011       1.41128471
H        1.41732950      -3.28230703       0.35748251
H        0.08989249      -3.66111381       1.44619987
H       -1.39141955      -2.08879592      -2.74158116
H       -2.11597427      -1.03459175      -1.53247792
H       -0.93587526       0.93572644      -2.45853605
H       -0.12183573      -0.07615708      -3.66713575
H       -1.86564632       0.11247165      -3.70199604
47
Properties=species:S:1:pos:R:3 charge=1 spin=1 pbc="F F F"
C        2.69811055       1.10744881       2.96132935
N        2.05671250       1.28910888       1.66030446
C        2.84688948       2.03087122       0.68473607
C        0.83672037       0.86904110       1.44610487
C        0.05947781       0.92869788       0.26353525
C       -1.39524684       1.21296439       0.54988444
C       -1.96017573       2.39473405       0.07841592
C       -3.27497722       2.71997819       0.37544011
C       -4.04406248       1.86828809       1.15225312
C       -3.49213198       0.68790604       1.62895165
C       -2.17756135       0.36154910       1.32662399
H        3.60977396       0.52280314       2.84769096
H        2.95291489       2.08086172       3.37896213
H        2.02106846       0.59527708       3.63896847
H        2.22351657       2.35237523      -0.14346381
H        3.65856467       1.40836408       0.30782053
H        3.26998854       2.90778153       1.17584230
H        0.37457898       0.41243775       2.31797361
H        0.46480890       1.58078523      -0.51007456
H        0.08045586      -0.31032256      -0.40593665
H       -1.35901767       3.07938699      -0.50765213
H       -3.69050469       3.64875770       0.00935999
H       -5.06510345       2.12698275       1.39457927
H       -4.08694764       0.01915089       2.23718999
H       -1.75818302      -0.56111920       1.71363333
C        2.39412060      -1.12895344      -1.46752731
C        1.13896181      -1.85290590      -1.92821088
N       -0.09998052      -1.45688704      -1.19136084
C       -0.53354031      -2.53580515      -0.26266333
C        0.49704397      -2.89089119       0.79318800
C       -1.22184948      -1.18839699      -2.13797052
C       -1.00676970       0.01549707      -3.03695885
H        3.24781606      -1.50400437      -2.03425887
H        2.59449144      -1.28752764      -0.40554094
H        2.31438391      -0.05672725      -1.65506003
H        1.27012798      -2.93429280      -1.84121537
H        0.98593611      -1.65951416      -2.98842457
H       -0.78769307      -3.42523972      -0.85237829
H       -1.45674489      -2.19580818       0.20772353
H        0.74699878      -2.02761699       1.41173343
H        1.41650096      -3.28372378       0.35793229
H        0.08902368      -3.66157435       1.44692585
H       -1.39130363      -2.08921556      -2.74122076
H       -2.11597175      -1.03490415      -1.53227909
H       -0.93522880       0.93523269      -2.45804494
H       -0.12142202      -0.07680023      -3.66669283
H       -1.86517964       0.11227946      -3.70157444
47
Properties=species:S:1:pos:R:3 charge=1 spin=1 pbc="F F F"
C        2.69295456       1.10182498       2.96778770
N        2.05550544       1.28361150       1.66489972
C        2.85035617       2.02236459       0.69100343
C        0.83481165       0.86704454       1.44818140
C        0.06008173       0.92821644       0.26406622
C       -1.39457555       1.21536707       0.54773818
C       -1.95603444       2.39860643       0.07591040
C       -3.27068529       2.72648296       0.37051606
C       -4.04311262       1.87598461       1.14524832
C       -3.49465370       0.69417738       1.62231645
C       -2.18021150       0.36519583       1.32239588
H        3.60244350       0.51334146       2.85752673
H        2.95068887       2.07494450       3.38423463
H        2.01222072       0.59380442       3.64469223
H        2.23256746       2.33672859      -0.14350608
H        3.66635884       1.40023715       0.32406520
H        3.26733216       2.90335319       1.17972440
H        0.36955444       0.41216875       2.31924355
H        0.46799657       1.57974044      -0.50862343
H        0.08033350      -0.31089060      -0.40541568
H       -1.35224607       3.08230034      -0.50850904
H       -3.68348083       3.65635394       0.00419526
H       -5.06405941       2.13671015       1.38567735
H       -4.09208293       0.02634589       2.22894853
H       -1.76357781      -0.55856975       1.70966711
C        2.39432962      -1.13084618      -1.46614630
C        1.13884278      -1.85384850      -1.92741787
N       -0.10008288      -1.45741587      -1.19076438
C       -0.53400434      -2.53607170      -0.26194186
C        0.49655256      -2.89167687       0.79376812
C       -1.22175089      -1.18882334      -2.13759635
C       -1.00634051       0.01505493      -3.03652500
H        3.24795968      -1.50640536      -2.03263793
H        2.59423653      -1.28969809      -0.40412176
H        2.31543628      -0.05854732      -1.65356078
H        1.26931463      -2.93535691      -1.84084619
H        0.98621921      -1.65991023      -2.98758319
H       -0.78871998      -3.42540187      -0.85156827
H       -1.45696956      -2.19560148       0.20858380
H        0.74716788      -2.02850386       1.41218214
H        1.41567241      -3.28514054       0.35838207
H        0.08815487      -3.66203490       1.44765183
H       -1.39118771      -2.08963520      -2.74086036
H       -2.11596922      -1.03521654      -1.53208025
H       -0.93458234       0.93473893      -2.45755382
H       -0.12100830      -0.07744339      -3.66624992
H       -1.86471297       0.11208727      -3.70115284
47
Properties=species:S:1:pos:R:3 charge=1 spin=1 pbc="F F F"
C        2.68779858       1.09620115       2.97424606
N        2.05429837       1.27811413       1.66949497
C        2.85382286       2.01385796       0.69727080
C        0.83290294       0.86504798       1.45025794
C        0.06068565       0.92773499       0.26459720
C       -1.39390426       1.21776976       0.54559193
C       -1.95189315       2.40247882       0.07340488
C       -3.26639336       2.73298774       0.36559200
C       -4.04216276       1.88368112       1.13824351
C       -3.49717542       0.70044873       1.61568125
C       -2.18286165       0.36884255       1.31816777
H        3.59511303       0.50387979       2.86736250
H        2.94846285       2.06902729       3.38950712
H        2.00337298       0.59233177       3.65041600
H        2.24161835       2.32108194      -0.14354835
H        3.67415301       1.39211022       0.34030987
H        3.26467578       2.89892484       1.18360651
H        0.36452990       0.41189975       2.32051349
H        0.47118424       1.57869565      -0.50717229
H        0.08021114      -0.31145863      -0.40489470
H       -1.34547446       3.08521369      -0.50936596
H       -3.67645697       3.66395018      -0.00096946
H       -5.06301537       2.14643755       1.37677542
H       -4.09721823       0.03354088       2.22070706
H       -1.76897261      -0.55602031       1.70570089
C        2.39453864      -1.13273892      -1.46476529
C        1.13872375      -1.85479110      -1.92662485
N       -0.10018525      -1.45794471      -1.19016792
C       -0.53446837      -2.53633825      -0.26122039
C        0.49606115      -2.89246255       0.79434824
C       -1.22165230      -1.18924969      -2.13722217
C       -1.00591133       0.01461280      -3.03609115
H        3.24810329      -1.50880634      -2.03101698
H        2.59398162      -1.29186854      -0.40270258
H        2.31648865      -0.06036739      -1.65206153
H        1.26850128      -2.93642102      -1.84047701
H        0.98650232      -1.66030630      -2.98674181
H       -0.78974690      -3.42556402      -0.85075826
H       -1.45719423      -2.19539478       0.20944408
H        0.74733698      -2.02939073       1.41263085
H        1.41484387      -3.28655730       0.35883185
H        0.08728607      -3.66249544       1.44837781
H       -1.39107178      -2.09005484      -2.74049995
H       -2.11596669      -1.03552893      -1.53188142
H       -0.93393587       0.93424518      -2.45706270
H       -0.12059459      -0.07808654      -3.66580700
H       -1.86424630       0.11189508      -3.70073124
47
Properties=species:S:1:pos:R:3 charge=1 spin=1 pbc="F F F"
C        2.68264260       1.09057732       2.98070441
N        2.05309131       1.27261675       1.67409023
C        2.85728955       2.00535134       0.70353816
C        0.83099422       0.86305142       1.45233447
C        0.06128958       0.92725355       0.26512817
C       -1.39323297       1.22017244       0.54344567
C       -1.94775187       2.40635121       0.07089935
C       -3.26210143       2.73949251       0.36066795
C       -4.04121290       1.89137764       1.13123871
C       -3.49969714       0.70672007       1.60904604
C       -2.18551179       0.37248928       1.31393965
H        3.58778257       0.49441811       2.87719828
H        2.94623683       2.06311008       3.39477962
H        1.99452524       0.59085911       3.65613976
H        2.25066924       2.30543529      -0.14359062
H        3.68194718       1.38398329       0.35655453
H        3.26201941       2.89449650       1.18748861
H        0.35950535       0.41163075       2.32178343
H        0.47437191       1.57765086      -0.50572116
H        0.08008878      -0.31202666      -0.40437373
H       -1.33870285       3.08812705      -0.51022287
H       -3.66943310       3.67154642      -0.00613418
H       -5.06197132       2.15616495       1.36787349
H       -4.10235352       0.04073587       2.21246560
H       -1.77436740      -0.55347087       1.70173466
C        2.39474767      -1.13463166      -1.46338428
C        1.13860471      -1.85573369      -1.92583184
N       -0.10028761      -1.45847354      -1.18957146
C       -0.53493239      -2.53660480      -0.26049891
C        0.49556973      -2.89324823       0.79492836
C       -1.22155371      -1.18967603      -2.13684799
C       -1.00548214       0.01417066      -3.03565730
H        3.24824691      -1.51120733      -2.02939604
H        2.59372671      -1.29403899      -0.40128341
H        2.31754101      -0.06218745      -1.65056228
H        1.26768792      -2.93748512      -1.84010784
H        0.98678543      -1.66070237      -2.98590043
H       -0.79077381      -3.42572617      -0.84994825
H       -1.45741890      -2.19518808       0.21030436
H        0.74750608      -2.03027761       1.41307957
H        1.41401532      -3.28797405       0.35928163
H        0.08641726      -3.66295599       1.44910379
H       -1.39095586      -2.09047448      -2.74013955
H       -2.11596417      -1.03584133      -1.53168259
H       -0.93328941       0.93375142      -2.45657159
H       -0.12018087      -0.07872970      -3.66536409
H       -1.86377962       0.11170289      -3.70030964
47
Properties=species:S:1:pos:R:3 charge=1 spin=1 pbc="F F F"
C        2.67748662       1.08495349       2.98716277
N        2.05188425       1.26711937       1.67868549
C        2.86075624       1.99684471       0.70980553
C        0.82908550       0.86105486       1.45441100
C        0.06189350       0.92677210       0.26565915
C       -1.39256168       1.22257513       0.54129941
C       -1.94361058       2.41022360       0.06839383
C       -3.25780950       2.74599729       0.35574389
C       -4.04026304       1.89907415       1.12423390
C       -3.50221886       0.71299141       1.60241084
C       -2.18816194       0.37613600       1.30971154
H        3.58045210       0.48495644       2.88703405
H        2.94401081       2.05719287       3.40005211
H        1.98567750       0.58938646       3.66186353
H        2.25972013       2.28978864      -0.14363289
H        3.68974135       1.37585636       0.37279920
H        3.25936303       2.89006815       1.19137072
H        0.35448081       0.41136175       2.32305337
H        0.47755958       1.57660607      -0.50427002
H        0.07996642      -0.31259469      -0.40385275
H       -1.33193124       3.09104040      -0.51107979
H       -3.66240924       3.67914266      -0.01129890
H       -5.06092728       2.16589235       1.35897156
H       -4.10748882       0.04793086       2.20422414
H       -1.77976220      -0.55092143       1.69776844
C        2.39495669      -1.13652440      -1.46200327
C        1.13848568      -1.85667629      -1.92503883
N       -0.10038997      -1.45900238      -1.18897500
C       -0.53539642      -2.53687135      -0.25977744
C        0.49507832      -2.89403391       0.79550848
C       -1.22145512      -1.19010238      -2.13647381
C       -1.00505296       0.01372853      -3.03522345
H        3.24839053      -1.51360831      -2.02777509
H        2.59347180      -1.29620944      -0.39986423
H        2.31859338      -0.06400752      -1.64906303
H        1.26687457      -2.93854923      -1.83973866
H        0.98706854      -1.66109844      -2.98505905
H       -0.79180072      -3.42588832      -0.84913824
H       -1.45764357      -2.19498138       0.21116464
H        0.74767518      -2.03116448       1.41352828
H        1.41318678      -3.28939081       0.35973141
H        0.08554845      -3.66341653       1.44982977
H       -1.39083994      -2.09089412      -2.73977915
H       -2.11596164      -1.03615372      -1.53148376
H       -0.93264295       0.93325767      -2.45608047
H       -0.11976716      -0.07937285      -3.66492117
H       -1.86331295       0.11151070      -3.69988804
47
Properties=species:S:1:pos:R:3 charge=1 spin=1 pbc="F F F"
C        2.67233064       1.07932966       2.99362113
N        2.05067719       1.26162199       1.68328075
C        2.86422293       1.98833808       0.71607290
C        0.82717678       0.85905830       1.45648753
C        0.06249742       0.92629065       0.26619013
C       -1.39189039       1.22497782       0.53915315
C       -1.93946929       2.41409599       0.06588831
C       -3.25351757       2.75250207       0.35081983
C       -4.03931318       1.90677066       1.11722909
C       -3.50474058       0.71926275       1.59577564
C       -2.19081209       0.37978272       1.30548343
H        3.57312163       0.47549477       2.89686982
H        2.94178479       2.05127566       3.40532460
H        1.97682976       0.58791381       3.66758730
H        2.26877102       2.27414199      -0.14367516
H        3.69753552       1.36772943       0.38904387
H        3.25670665       2.88563980       1.19525283
H        0.34945627       0.41109275       2.32432331
H        0.48074725       1.57556128      -0.50281888
H        0.07984406      -0.31316272      -0.40333177
H       -1.32515963       3.09395375      -0.51193671
H       -3.65538538       3.68673890      -0.01646362
H       -5.05988324       2.17561975       1.35006963
H       -4.11262412       0.05512585       2.19598268
H       -1.78515700      -0.54837199       1.69380222
C        2.39516571      -1.13841714      -1.46062226
C        1.13836665      -1.85761889      -1.92424582
N       -0.10049233      -1.45953122      -1.18837854
C       -0.53586045      -2.53713790      -0.25905597
C        0.49458691      -2.89481959       0.79608860
C       -1.22135653      -1.19052873      -2.13609963
C       -1.00462378       0.01328640      -3.03478960
H        3.24853415      -1.51600929      -2.02615414
H        2.59321689      -1.29837989      -0.39844505
H        2.31964575      -0.06582759      -1.64756378
H        1.26606122      -2.93961334      -1.83936948
H        0.98735165      -1.66149451      -2.98421767
H       -0.79282763      -3.42605047      -0.84832823
H       -1.45786824      -2.19477468       0.21202492
H        0.74784428      -2.03205135       1.41397699
H        1.41235824      -3.29080757       0.36018119
H        0.08467964      -3.66387707       1.45055575
H       -1.39072402      -2.09131376      -2.73941875
H       -2.11595911      -1.03646611      -1.53128493
H       -0.93199649       0.93276392      -2.45558935
H       -0.11935345      -0.08001600      -3.66447825
H       -1.86284628       0.11131851      -3.69946644
47
Properties=species:S:1:pos:R:3 charge=1 spin=1 pbc="F F F"
C        2.66717466       1.07370583       3.00007948
N        2.04947013       1.25612461       1.68787601
C        2.86768962       1.97983146       0.72234026
C        0.82526806       0.85706174       1.45856406
C        0.06310135       0.92580921       0.26672110
C       -1.39121910       1.22738050       0.53700689
C       -1.93532801       2.41796838       0.06338278
C       -3.24922564       2.75900684       0.34589578
C       -4.03836332       1.91446718       1.11022429
C       -3.50726230       0.72553409       1.58914043
C       -2.19346223       0.38342945       1.30125531
H        3.56579117       0.46603309       2.90670560
H        2.93955877       2.04535845       3.41059710
H        1.96798202       0.58644115       3.67331106
H        2.27782191       2.25849534      -0.14371743
H        3.70532969       1.35960250       0.40528853
H        3.25405028       2.88121146       1.19913493
H        0.34443172       0.41082375       2.32559325
H        0.48393492       1.57451649      -0.50136775
H        0.07972170      -0.31373075      -0.40281080
H       -1.31838802       3.09686711      -0.51279362
H       -3.64836151       3.69433514      -0.02162834
H       -5.05883919       2.18534715       1.34116770
H       -4.11775941       0.06232084       2.18774122
H       -1.79055179      -0.54582255       1.68983599
C        2.39537474      -1.14030988      -1.45924125
C        1.13824761      -1.85856148      -1.92345281
N       -0.10059469      -1.46006005      -1.18778208
C       -0.53632447      -2.53740445      -0.25833449
C        0.49409549      -2.89560527       0.79666872
C       -1.22125794      -1.19095507      -2.13572545
C       -1.00419459       0.01284426      -3.03435575
H        3.24867777      -1.51841028      -2.02453320
H        2.59296198      -1.30055034      -0.39702588
H        2.32069811      -0.06764765      -1.64606453
H        1.26524786      -2.94067744      -1.83900031
H        0.98763476      -1.66189058      -2.98337629
H       -0.79385454      -3.42621262      -0.84751822
H       -1.45809291      -2.19456798       0.21288520
H        0.74801338      -2.03293823       1.41442571
H        1.41152969      -3.29222432       0.36063097
H        0.08381083      -3.66433762       1.45128173
H       -1.39060810      -2.09173340      -2.73905835
H       -2.11595659      -1.03677851      -1.53108610
H       -0.93135003       0.93227016      -2.45509824
H       -0.11893973      -0.08065916      -3.66403534
H       -1.86237960       0.11112632      -3.69904484
47
Properties=species:S:1:pos:R:3 charge=1 spin=1 pbc="F F F"
C        2.66201868       1.06808200       3.00653784
N        2.04826306       1.25062724       1.69247126
C        2.87115631       1.97132483       0.72860763
C        0.82335935       0.85506518       1.46064060
C        0.06370527       0.92532776       0.26725208
C       -1.39054781       1.22978319       0.53486064
C       -1.93118672       2.42184077       0.06087726
C       -3.24493371       2.76551162       0.34097172
C       -4.03741346       1.92216369       1.10321948
C       -3.50978402       0.73180544       1.58250523
C       -2.19611238       0.38707617       1.29702720
H        3.55846070       0.45657142       2.91654137
H        2.93733275       2.03944124       3.41586959
H        1.95913428       0.58496850       3.67903483
H        2.28687280       2.24284869      -0.14375970
H        3.71312386       1.35147557       0.42153320
H        3.25139390       2.87678311       1.20301704
H        0.33940718       0.41055475       2.32686319
H        0.48712259       1.57347170      -0.49991661
H        0.07959934      -0.31429878      -0.40228982
H       -1.31161641       3.09978046      -0.51365054
H       -3.64133765       3.70193138      -0.02679306
H       -5.05779515       2.19507455       1.33226577
H       -4.12289471       0.06951583       2.17949975
H       -1.79594659      -0.54327311       1.68586977
C        2.39558376      -1.14220262      -1.45786024
C        1.13812858      -1.85950408      -1.92265979
N       -0.10069706      -1.46058889      -1.18718562
C       -0.53678850      -2.53767100      -0.25761302
C        0.49360408      -2.89639095       0.79724884
C       -1.22115935      -1.19138142      -2.13535127
C       -1.00376541       0.01240213      -3.03392190
H        3.24882138      -1.52081126      -2.02291225
H        2.59270707      -1.30272079      -0.39560670
H        2.32175048      -0.06946772      -1.64456528
H        1.26443451      -2.94174155      -1.83863113
H        0.98791787      -1.66228665      -2.98253491
H       -0.79488146      -3.42637477      -0.84670821
H       -1.45831758      -2.19436128       0.21374548
H        0.74818248      -2.03382510       1.41487442
H        1.41070115      -3.29364108       0.36108075
H        0.08294203      -3.66479816       1.45200771
H       -1.39049217      -2.09215304      -2.73869794
H       -2.11595406      -1.03709090      -1.53088727
H       -0.93070356       0.93177641      -2.45460712
H       -0.11852602      -0.08130231      -3.66359242
H       -1.86191293       0.11093413      -3.69862324
47
Properties=species:S:1:pos:R:3 charge=1 spin=1 pbc="F F F"
C        2.65686269       1.06245817       3.01299619
N        2.04705600       1.24512986       1.69706652
C        2.87462300       1.96281820       0.73487499
C        0.82145063       0.85306862       1.46271713
C        0.06430919       0.92484632       0.26778305
C       -1.38987652       1.23218587       0.53271438
C       -1.92704543       2.42571315       0.05837174
C       -3.24064178       2.77201639       0.33604767
C       -4.03646360       1.92986021       1.09621468
C       -3.51230574       0.73807678       1.57587003
C       -2.19876253       0.39072290       1.29279909
H        3.55113024       0.44710974       2.92637714
H        2.93510673       2.03352402       3.42114209
H        1.95028654       0.58349584       3.68475859
H        2.29592369       2.22720205      -0.14380197
H        3.72091803       1.34334864       0.43777787
H        3.24873752       2.87235477       1.20689914
H        0.33438264       0.41028575       2.32813313
H        0.49031026       1.57242691      -0.49846548
H        0.07947698      -0.31486682      -0.40176885
H       -1.30484481       3.10269381      -0.51450745
H       -3.63431379       3.70952762      -0.03195779
H       -5.05675111       2.20480195       1.32336385
H       -4.12803000       0.07671083       2.17125829
H       -1.80134138      -0.54072366       1.68190355
C        2.39579278      -1.14409536      -1.45647923
C        1.13800955      -1.86044668      -1.92186678
N       -0.10079942      -1.46111772      -1.18658916
C       -0.53725253      -2.53793755      -0.25689155
C        0.49311267      -2.89717663       0.79782896
C       -1.22106076      -1.19180777      -2.13497710
C       -1.00333622       0.01195999      -3.03348805
H        3.24896500      -1.52321225      -2.02129131
H        2.59245216      -1.30489124      -0.39418752
H        2.32280285      -0.07128779      -1.64306603
H        1.26362116      -2.94280566      -1.83826195
H        0.98820097      -1.66268272      -2.98169353
H       -0.79590837      -3.42653692      -0.84589819
H       -1.45854225      -2.19415458       0.21460575
H        0.74835158      -2.03471197       1.41532313
H        1.40987260      -3.29505784       0.36153053
H        0.08207322      -3.66525871       1.45273369
H       -1.39037625      -2.09257268      -2.73833754
H       -2.11595153      -1.03740329      -1.53068843
H       -0.93005710       0.93128265      -2.45411600
H       -0.11811230      -0.08194547      -3.66314951
H       -1.86144626       0.11074194      -3.69820164
47
Properties=species:S:1:pos:R:3 charge=1 spin=1 pbc="F F F"
C        2.65170671       1.05683434       3.01945455
N        2.04584894       1.23963248       1.70166178
C        2.87808969       1.95431157       0.74114236
C        0.81954191       0.85107206       1.46479366
C        0.06491311       0.92436487       0.26831403
C       -1.38920523       1.23458856       0.53056812
C       -1.92290414       2.42958554       0.05586622
C       -3.23634985       2.77852117       0.33112361
C       -4.03551373       1.93755672       1.08920987
C       -3.51482747       0.74434812       1.56923483
C       -2.20141267       0.39436962       1.28857098
H        3.54379977       0.43764807       2.93621292
H        2.93288071       2.02760681       3.42641458
H        1.94143880       0.58202319       3.69048236
H        2.30497458       2.21155540      -0.14384424
H        3.72871220       1.33522171       0.45402254
H        3.24608115       2.86792642       1.21078125
H        0.32935810       0.41001675       2.32940307
H        0.49349793       1.57138212      -0.49701434
H        0.07935461      -0.31543485      -0.40124787
H       -1.29807320       3.10560717      -0.51536437
H       -3.62728992       3.71712386      -0.03712251
H       -5.05570706       2.21452934       1.31446192
H       -4.13316530       0.08390582       2.16301683
H       -1.80673618      -0.53817422       1.67793732
C        2.39600181      -1.14598810      -1.45509822
C        1.13789051      -1.86138927      -1.92107377
N       -0.10090178      -1.46164656      -1.18599270
C       -0.53771656      -2.53820410      -0.25617007
C        0.49262126      -2.89796231       0.79840907
C       -1.22096217      -1.19223411      -2.13460292
C       -1.00290704       0.01151786      -3.03305419
H        3.24910862      -1.52561323      -2.01967036
H        2.59219725      -1.30706169      -0.39276835
H        2.32385522      -0.07310785      -1.64156678
H        1.26280780      -2.94386977      -1.83789278
H        0.98848408      -1.66307880      -2.98085215
H       -0.79693528      -3.42669907      -0.84508818
H       -1.45876692      -2.19394788       0.21546603
H        0.74852067      -2.03559885       1.41577185
H        1.40904406      -3.29647459       0.36198031
H        0.08120441      -3.66571925       1.45345967
H       -1.39026033      -2.09299232      -2.73797714
H       -2.11594901      -1.03771569      -1.53048960
H       -0.92941064       0.93078890      -2.45362489
H       -0.11769859      -0.08258862      -3.66270659
H       -1.86097958       0.11054975      -3.69778004
47
Properties=species:S:1:pos:R:3 charge=1 spin=1 pbc="F F F"
C        2.64655073       1.05121051       3.02591290
N        2.04464188       1.23413510       1.70625704
C        2.88155638       1.94580495       0.74740972
C        0.81763319       0.84907551       1.46687019
C        0.06551704       0.92388343       0.26884501
C       -1.38853394       1.23699125       0.52842186
C       -1.91876286       2.43345793       0.05336069
C       -3.23205792       2.78502594       0.32619955
C       -4.03456387       1.94525324       1.08220506
C       -3.51734919       0.75061946       1.56259962
C       -2.20406282       0.39801634       1.28434286
H        3.53646930       0.42818639       2.94604869
H        2.93065469       2.02168960       3.43168708
H        1.93259106       0.58055053       3.69620613
H        2.31402547       2.19590875      -0.14388651
H        3.73650637       1.32709478       0.47026720
H        3.24342477       2.86349808       1.21466335
H        0.32433355       0.40974775       2.33067301
H        0.49668560       1.57033733      -0.49556320
H        0.07923225      -0.31600288      -0.40072689
H       -1.29130159       3.10852052      -0.51622129
H       -3.62026606       3.72472010      -0.04228723
H       -5.05466302       2.22425674       1.30555999
H       -4.13830060       0.09110081       2.15477537
H       -1.81213098      -0.53562478       1.67397110
C        2.39621083      -1.14788084      -1.45371721
C        1.13777148      -1.86233187      -1.92028076
N       -0.10100414      -1.46217540      -1.18539624
C       -0.53818058      -2.53847065      -0.25544860
C        0.49212984      -2.89874799       0.79898919
C       -1.22086358      -1.19266046      -2.13422874
C       -1.00247786       0.01107573      -3.03262034
H        3.24925224      -1.52801422      -2.01804942
H        2.59194234      -1.30923214      -0.39134917
H        2.32490758      -0.07492792      -1.64006753
H        1.26199445      -2.94493387      -1.83752360
H        0.98876719      -1.66347487      -2.98001077
H       -0.79796219      -3.42686122      -0.84427817
H       -1.45899159      -2.19374117       0.21632631
H        0.74868977      -2.03648572       1.41622056
H        1.40821551      -3.29789135       0.36243009
H        0.08033560      -3.66617980       1.45418565
H       -1.39014441      -2.09341197      -2.73761674
H       -2.11594648      -1.03802808      -1.53029077
H       -0.92876418       0.93029514      -2.45313377
H       -0.11728487      -0.08323177      -3.66226367
H       -1.86051291       0.11035756      -3.69735844
47
Properties=species:S:1:pos:R:3 charge=1 spin=1 pbc="F F F"
C        2.64139475       1.04558668       3.03237126
N        2.04343481       1.22863772       1.71085230
C        2.88502307       1.93729832       0.75367709
C        0.81572448       0.84707895       1.46894672
C        0.06612096       0.92340198       0.26937598
C       -1.38786265       1.23939393       0.52627560
C       -1.91462157       2.43733032       0.05085517
C       -3.22776599       2.79153072       0.32127550
C       -4.03361401       1.95294975       1.07520026
C       -3.51987091       0.75689080       1.55596442
C       -2.20671297       0.40166307       1.28011475
H        3.52913884       0.41872472       2.95588446
H        2.92842867       2.01577239       3.43695957
H        1.92374332       0.57907788       3.70192989
H        2.32307636       2.18026210      -0.14392878
H        3.74430055       1.31896785       0.48651187
H        3.24076839       2.85906973       1.21854546
H        0.31930901       0.40947875       2.33194295
H        0.49987326       1.56929254      -0.49411207
H        0.07910989      -0.31657091      -0.40020592
H       -1.28452998       3.11143388      -0.51707820
H       -3.61324220       3.73231634      -0.04745195
H       -5.05361898       2.23398414       1.29665806
H       -4.14343589       0.09829580       2.14653391
H       -1.81752577      -0.53307534       1.67000488
C        2.39641985      -1.14977358      -1.45233621
C        1.13765244      -1.86327447      -1.91948774
N       -0.10110650      -1.46270423      -1.18479978
C       -0.53864461      -2.53873721      -0.25472713
C        0.49163843      -2.89953368       0.79956931
C       -1.22076499      -1.19308681      -2.13385456
C       -1.00204867       0.01063359      -3.03218649
H        3.24939585      -1.53041520      -2.01642847
H        2.59168743      -1.31140260      -0.38992999
H        2.32595995      -0.07674799      -1.63856828
H        1.26118109      -2.94599798      -1.83715442
H        0.98905030      -1.66387094      -2.97916938
H       -0.79898911      -3.42702337      -0.84346816
H       -1.45921626      -2.19353447       0.21718659
H        0.74885887      -2.03737259       1.41666927
H        1.40738697      -3.29930811       0.36287987
H        0.07946680      -3.66664034       1.45491163
H       -1.39002849      -2.09383161      -2.73725634
H       -2.11594395      -1.03834048      -1.53009194
H       -0.92811772       0.92980139      -2.45264265
H       -0.11687116      -0.08387493      -3.66182076
H       -1.86004623       0.11016537      -3.69693684
47
Properties=species:S:1:pos:R:3 charge=1 spin=1 pbc="F F F"
C        2.63623877       1.03996285       3.03882961
N        2.04222775       1.22314034       1.71544755
C        2.88848976       1.92879169       0.75994445
C        0.81381576       0.84508239       1.47102325
C        0.06672488       0.92292054       0.26990696
C       -1.38719136       1.24179662       0.52412935
C       -1.91048028       2.44120271       0.04834965
C       -3.22347405       2.79803549       0.31635144
C       -4.03266415       1.96064627       1.06819545
C       -3.52239263       0.76316215       1.54932922
C       -2.20936311       0.40530979       1.27588664
H        3.52180837       0.40926304       2.96572024
H        2.92620265       2.00985518       3.44223207
H        1.91489558       0.57760523       3.70765366
H        2.33212725       2.16461545      -0.14397105
H        3.75209472       1.31084092       0.50275654
H        3.23811202       2.85464139       1.22242757
H        0.31428447       0.40920976       2.33321289
H        0.50306093       1.56824775      -0.49266093
H        0.07898753      -0.31713894      -0.39968494
H       -1.27775837       3.11434723      -0.51793512
H       -3.60621833       3.73991257      -0.05261667
H       -5.05257494       2.24371154       1.28775613
H       -4.14857119       0.10549079       2.13829245
H       -1.82292057      -0.53052590       1.66603865
C        2.39662888      -1.15166631      -1.45095520
C        1.13753341      -1.86421707      -1.91869473
N       -0.10120886      -1.46323307      -1.18420333
C       -0.53910864      -2.53900376      -0.25400565
C        0.49114702      -2.90031936       0.80014943
C       -1.22066640      -1.19351315      -2.13348038
C       -1.00161949       0.01019146      -3.03175264
H        3.24953947      -1.53281619      -2.01480752
H        2.59143252      -1.31357305      -0.38851082
H        2.32701232      -0.07856805      -1.63706903
H        1.26036774      -2.94706209      -1.83678525
H        0.98933341      -1.66426701      -2.97832800
H       -0.80001602      -3.42718552      -0.84265815
H       -1.45944093      -2.19332777       0.21804687
H        0.74902797      -2.03825947       1.41711799
H        1.40655842      -3.30072486       0.36332965
H        0.07859799      -3.66710089       1.45563761
H       -1.38991256      -2.09425125      -2.73689594
H       -2.11594143      -1.03865287      -1.52989311
H       -0.92747125       0.92930763      -2.45215154
H       -0.11645745      -0.08451808      -3.66137784
H       -1.85957956       0.10997318      -3.69651524
47
Properties=species:S:1:pos:R:3 charge=1 spin=1 pbc="F F F"
C        2.63108279       1.03433902       3.04528797
N        2.04102069       1.21764297       1.72004281
C        2.89195645       1.92028506       0.76621182
C        0.81190704       0.84308583       1.47309979
C        0.06732880       0.92243909       0.27043793
C       -1.38652007       1.24419930       0.52198309
C       -1.90633899       2.44507510       0.04584412
C       -3.21918212       2.80454027       0.31142738
C       -4.03171429       1.96834278       1.06119064
C       -3.52491435       0.76943349       1.54269402
C       -2.21201326       0.40895652       1.27165853
H        3.51447791       0.39980137       2.97555601
H        2.92397663       2.00393797       3.44750456
H        1.90604784       0.57613257       3.71337742
H        2.34117814       2.14896880      -0.14401332
H        3.75988889       1.30271399       0.51900121
H        3.23545564       2.85021304       1.22630967
H        0.30925992       0.40894076       2.33448283
H        0.50624860       1.56720296      -0.49120980
H        0.07886517      -0.31770697      -0.39916397
H       -1.27098676       3.11726058      -0.51879203
H       -3.59919447       3.74750881      -0.05778139
H       -5.05153089       2.25343894       1.27885420
H       -4.15370649       0.11268578       2.13005098
H       -1.82831537      -0.52797646       1.66207243
C        2.39683790      -1.15355905      -1.44957419
C        1.13741438      -1.86515966      -1.91790172
N       -0.10131123      -1.46376190      -1.18360687
C       -0.53957267      -2.53927031      -0.25328418
C        0.49065560      -2.90110504       0.80072955
C       -1.22056781      -1.19393950      -2.13310620
C       -1.00119030       0.00974932      -3.03131879
H        3.24968309      -1.53521717      -2.01318658
H        2.59117761      -1.31574350      -0.38709164
H        2.32806469      -0.08038812      -1.63556978
H        1.25955439      -2.94812620      -1.83641607
H        0.98961652      -1.66466308      -2.97748662
H       -0.80104293      -3.42734767      -0.84184814
H       -1.45966560      -2.19312107       0.21890715
H        0.74919707      -2.03914634       1.41756670
H        1.40572988      -3.30214162       0.36377943
H        0.07772918      -3.66756143       1.45636359
H       -1.38979664      -2.09467089      -2.73653553
H       -2.11593890      -1.03896526      -1.52969428
H       -0.92682479       0.92881388      -2.45166042
H       -0.11604373      -0.08516124      -3.66093493
H       -1.85911289       0.10978099      -3.69609364
47
Properties=species:S:1:pos:R:3 charge=1 spin=1 pbc="F F F"
C        2.62592680       1.02871519       3.05174632
N        2.03981363       1.21214559       1.72463807
C        2.89542314       1.91177844       0.77247918
C        0.80999832       0.84108927       1.47517632
C        0.06793273       0.92195765       0.27096891
C       -1.38584878       1.24660199       0.51983683
C       -1.90219771       2.44894749       0.04333860
C       -3.21489019       2.81104504       0.30650333
C       -4.03076443       1.97603930       1.05418584
C       -3.52743607       0.77570483       1.53605881
C       -2.21466341       0.41260324       1.26743041
H        3.50714744       0.39033969       2.98539178
H        2.92175061       1.99802076       3.45277706
H        1.89720010       0.57465992       3.71910119
H        2.35022903       2.13332216      -0.14405559
H        3.76768306       1.29458706       0.53524587
H        3.23279926       2.84578469       1.23019178
H        0.30423538       0.40867176       2.33575277
H        0.50943627       1.56615817      -0.48975866
H        0.07874281      -0.31827500      -0.39864299
H       -1.26421516       3.12017394      -0.51964895
H       -3.59217060       3.75510505      -0.06294611
H       -5.05048685       2.26316634       1.26995228
H       -4.15884178       0.11988078       2.12180952
H       -1.83371016      -0.52542702       1.65810621
C        2.39704693      -1.15545179      -1.44819318
C        1.13729534      -1.86610226      -1.91710871
N       -0.10141359      -1.46429074      -1.18301041
C       -0.54003669      -2.53953686      -0.25256271
C        0.49016419      -2.90189072       0.80130967
C       -1.22046922      -1.19436585      -2.13273202
C       -1.00076112       0.00930719      -3.03088494
H        3.24982671      -1.53761816      -2.01156563
H        2.59092269      -1.31791395      -0.38567246
H        2.32911705      -0.08220818      -1.63407053
H        1.25874103      -2.94919030      -1.83604689
H        0.98989963      -1.66505915      -2.97664524
H       -0.80206984      -3.42750983      -0.84103812
H       -1.45989028      -2.19291437       0.21976742
H        0.74936617      -2.04003321       1.41801542
H        1.40490134      -3.30355838       0.36422921
H        0.07686037      -3.66802198       1.45708957
H       -1.38968072      -2.09509053      -2.73617513
H       -2.11593637      -1.03927766      -1.52949544
H       -0.92617833       0.92832012      -2.45116930
H       -0.11563002      -0.08580439      -3.66049201
H       -1.85864621       0.10958880      -3.69567204
47
Properties=species:S:1:pos:R:3 charge=1 spin=1 pbc="F F F"
C        2.63108279       1.03433902       3.04528797
N        2.04102069       1.21764297       1.72004281
C        2.89195645       1.92028506       0.76621182
C        0.81190704       0.84308583       1.47309979
C        0.06732880       0.92243909       0.27043793
C       -1.38652007       1.24419930       0.52198309
C       -1.90633899       2.44507510       0.04584412
C       -3.21918212       2.80454027       0.31142738
C       -4.03171429       1.96834278       1.06119064
C       -3.52491435       0.76943349       1.54269402
C       -2.21201326       0.40895652       1.27165853
H        3.51447791       0.39980137       2.97555601
H        2.92397663       2.00393797       3.44750456
H        1.90604784       0.57613257       3.71337742
H        2.34117814       2.14896880      -0.14401332
H        3.75988889       1.30271399       0.51900121
H        3.23545564       2.85021304       1.22630967
H        0.30925992       0.40894076       2.33448283
H        0.50624860       1.56720296      -0.49120980
H        0.07886517      -0.31770697      -0.39916397
H       -1.27098676       3.11726058      -0.51879203
H       -3.59919447       3.74750881      -0.05778139
H       -5.05153089       2.25343894       1.27885420
H       -4.15370649       0.11268578       2.13005098
H       -1.82831537      -0.52797646       1.66207243
C        2.39683790      -1.15355905      -1.44957419
C        1.13741438      -1.86515966      -1.91790172
N       -0.10131123      -1.46376190      -1.18360687
C       -0.53957267      -2.53927031      -0.25328418
C        0.49065560      -2.90110504       0.80072955
C       -1.22056781      -1.19393950      -2.13310620
C       -1.00119030       0.00974932      -3.03131879
H        3.24968309      -1.53521717      -2.01318658
H        2.59117761      -1.31574350      -0.38709164
H        2.32806469      -0.08038812      -1.63556978
H        1.25955439      -2.94812620      -1.83641607
H        0.98961652      -1.66466308      -2.97748662
H       -0.80104293      -3.42734767      -0.84184814
H       -1.45966560      -2.19312107       0.21890715
H        0.74919707      -2.03914634       1.41756670
H        1.40572988      -3.30214162       0.36377943
H        0.07772918      -3.66756143       1.45636359
H       -1.38979664      -2.09467089      -2.73653553
H       -2.11593890      -1.03896526      -1.52969428
H       -0.92682479       0.92881388      -2.45166042
H       -0.11604373      -0.08516124      -3.66093493
H       -1.85911289       0.10978099      -3.69609364
47
Properties=species:S:1:pos:R:3 charge=1 spin=1 pbc="F F F"
C        2.63623877       1.03996285       3.03882961
N        2.04222775       1.22314034       1.71544755
C        2.88848976       1.92879169       0.75994445
C        0.81381576       0.84508239       1.47102325
C        0.06672488       0.92292054       0.26990696
C       -1.38719136       1.24179662       0.52412935
C       -1.91048028       2.44120271       0.04834965
C       -3.22347405       2.79803549       0.31635144
C       -4.03266415       1.96064627       1.06819545
C       -3.52239263       0.76316215       1.54932922
C       -2.20936311       0.40530979       1.27588664
H        3.52180837       0.40926304       2.96572024
H        2.92620265       2.00985518       3.44223207
H        1.91489558       0.57760523       3.70765366
H        2.33212725       2.16461545      -0.14397105
H        3.75209472       1.31084092       0.50275654
H        3.23811202       2.85464139       1.22242757
H        0.31428447       0.40920976       2.33321289
H        0.50306093       1.56824775      -0.49266093
H        0.07898753      -0.31713894      -0.39968494
H       -1.27775837       3.11434723      -0.51793512
H       -3.60621833       3.73991257      -0.05261667
H       -5.05257494       2.24371154       1.28775613
H       -4.14857119       0.10549079       2.13829245
H       -1.82292057      -0.53052590       1.66603865
C        2.39662888      -1.15166631      -1.45095520
C        1.13753341      -1.86421707      -1.91869473
N       -0.10120886      -1.46323307      -1.18420333
C       -0.53910864      -2.53900376      -0.25400565
C        0.49114702      -2.90031936       0.80014943
C       -1.22066640      -1.19351315      -2.13348038
C       -1.00161949       0.01019146      -3.03175264
H        3.24953947      -1.53281619      -2.01480752
H        2.59143252      -1.31357305      -0.38851082
H        2.32701232      -0.07856805      -1.63706903
H        1.26036774      -2.94706209      -1.83678525
H        0.98933341      -1.66426701      -2.97832800
H       -0.80001602      -3.42718552      -0.84265815
H       -1.45944093      -2.19332777       0.21804687
H        0.74902797      -2.03825947       1.41711799
H        1.40655842      -3.30072486       0.36332965
H        0.07859799      -3.66710089       1.45563761
H       -1.38991256      -2.09425125      -2.73689594
H       -2.11594143      -1.03865287      -1.52989311
H       -0.92747125       0.92930763      -2.45215154
H       -0.11645745      -0.08451808      -3.66137784
H       -1.85957956       0.10997318      -3.69651524
47
Properties=species:S:1:pos:R:3 charge=1 spin=1 pbc="F F F"
C        2.64139475       1.04558668       3.03237126
N        2.04343481       1.22863772       1.71085230
C        2.88502307       1.93729832       0.75367709
C        0.81572448       0.84707895       1.46894672
C        0.06612096       0.92340198       0.26937598
C       -1.38786265       1.23939393       0.52627560
C       -1.91462157       2.43733032       0.05085517
C       -3.22776599       2.79153072       0.32127550
C       -4.03361401       1.95294975       1.07520026
C       -3.51987091       0.75689080       1.55596442
C       -2.20671297       0.40166307       1.28011475
H        3.52913884       0.41872472       2.95588446
H        2.92842867       2.01577239       3.43695957
H        1.92374332       0.57907788       3.70192989
H        2.32307636       2.18026210      -0.14392878
H        3.74430055       1.31896785       0.48651187
H        3.24076839       2.85906973       1.21854546
H        0.31930901       0.40947875       2.33194295
H        0.49987326       1.56929254      -0.49411207
H        0.07910989      -0.31657091      -0.40020592
H       -1.28452998       3.11143388      -0.51707820
H       -3.61324220       3.73231634      -0.04745195
H       -5.05361898       2.23398414       1.29665806
H       -4.14343589       0.09829580       2.14653391
H       -1.81752577      -0.53307534       1.67000488
C        2.39641985      -1.14977358      -1.45233621
C        1.13765244      -1.86327447      -1.91948774
N       -0.10110650      -1.46270423      -1.18479978
C       -0.53864461      -2.53873721      -0.25472713
C        0.49163843      -2.89953368       0.79956931
C       -1.22076499      -1.19308681      -2.13385456
C       -1.00204867       0.01063359      -3.03218649
H        3.24939585      -1.53041520      -2.01642847
H        2.59168743      -1.31140260      -0.38992999
H        2.32595995      -0.07674799      -1.63856828
H        1.26118109      -2.94599798      -1.83715442
H        0.98905030      -1.66387094      -2.97916938
H       -0.79898911      -3.42702337      -0.84346816
H       -1.45921626      -2.19353447       0.21718659
H        0.74885887      -2.03737259       1.41666927
H        1.40738697      -3.29930811       0.36287987
H        0.07946680      -3.66664034       1.45491163
H       -1.39002849      -2.09383161      -2.73725634
H       -2.11594395      -1.03834048      -1.53009194
H       -0.92811772       0.92980139      -2.45264265
H       -0.11687116      -0.08387493      -3.66182076
H       -1.86004623       0.11016537      -3.69693684
47
Properties=species:S:1:pos:R:3 charge=1 spin=1 pbc="F F F"
C        2.64655073       1.05121051       3.02591290
N        2.04464188       1.23413510       1.70625704
C        2.88155638       1.94580495       0.74740972
C        0.81763319       0.84907551       1.46687019
C        0.06551704       0.92388343       0.26884501
C       -1.38853394       1.23699125       0.52842186
C       -1.91876286       2.43345793       0.05336069
C       -3.23205792       2.78502594       0.32619955
C       -4.03456387       1.94525324       1.08220506
C       -3.51734919       0.75061946       1.56259962
C       -2.20406282       0.39801634       1.28434286
H        3.53646930       0.42818639       2.94604869
H        2.93065469       2.02168960       3.43168708
H        1.93259106       0.58055053       3.69620613
H        2.31402547       2.19590875      -0.14388651
H        3.73650637       1.32709478       0.47026720
H        3.24342477       2.86349808       1.21466335
H        0.32433355       0.40974775       2.33067301
H        0.49668560       1.57033733      -0.49556320
H        0.07923225      -0.31600288      -0.40072689
H       -1.29130159       3.10852052      -0.51622129
H       -3.62026606       3.72472010      -0.04228723
H       -5.05466302       2.22425674       1.30555999
H       -4.13830060       0.09110081       2.15477537
H       -1.81213098      -0.53562478       1.67397110
C        2.39621083      -1.14788084      -1.45371721
C        1.13777148      -1.86233187      -1.92028076
N       -0.10100414      -1.46217540      -1.18539624
C       -0.53818058      -2.53847065      -0.25544860
C        0.49212984      -2.89874799       0.79898919
C       -1.22086358      -1.19266046      -2.13422874
C       -1.00247786       0.01107573      -3.03262034
H        3.24925224      -1.52801422      -2.01804942
H        2.59194234      -1.30923214      -0.39134917
H        2.32490758      -0.07492792      -1.64006753
H        1.26199445      -2.94493387      -1.83752360
H        0.98876719      -1.66347487      -2.98001077
H       -0.79796219      -3.42686122      -0.84427817
H       -1.45899159      -2.19374117       0.21632631
H        0.74868977      -2.03648572       1.41622056
H        1.40821551      -3.29789135       0.36243009
H        0.08033560      -3.66617980       1.45418565
H       -1.39014441      -2.09341197      -2.73761674
H       -2.11594648      -1.03802808      -1.53029077
H       -0.92876418       0.93029514      -2.45313377
H       -0.11728487      -0.08323177      -3.66226367
H       -1.86051291       0.11035756      -3.69735844
47
Properties=species:S:1:pos:R:3 charge=1 spin=1 pbc="F F F"
C        2.65170671       1.05683434       3.01945455
N        2.04584894       1.23963248       1.70166178
C        2.87808969       1.95431157       0.74114236
C        0.81954191       0.85107206       1.46479366
C        0.06491311       0.92436487       0.26831403
C       -1.38920523       1.23458856       0.53056812
C       -1.92290414       2.42958554       0.05586622
C       -3.23634985       2.77852117       0.33112361
C       -4.03551373       1.93755672       1.08920987
C       -3.51482747       0.74434812       1.56923483
C       -2.20141267       0.39436962       1.28857098
H        3.54379977       0.43764807       2.93621292
H        2.93288071       2.02760681       3.42641458
H        1.94143880       0.58202319       3.69048236
H        2.30497458       2.21155540      -0.14384424
H        3.72871220       1.33522171       0.45402254
H        3.24608115       2.86792642       1.21078125
H        0.32935810       0.41001675       2.32940307
H        0.49349793       1.57138212      -0.49701434
H        0.07935461      -0.31543485      -0.40124787
H       -1.29807320       3.10560717      -0.51536437
H       -3.62728992       3.71712386      -0.03712251
H       -5.05570706       2.21452934       1.31446192
H       -4.13316530       0.08390582       2.16301683
H       -1.80673618      -0.53817422       1.67793732
C        2.39600181      -1.14598810      -1.45509822
C        1.13789051      -1.86138927      -1.92107377
N       -0.10090178      -1.46164656      -1.18599270
C       -0.53771656      -2.53820410      -0.25617007
C        0.49262126      -2.89796231       0.79840907
C       -1.22096217      -1.19223411      -2.13460292
C       -1.00290704       0.01151786      -3.03305419
H        3.24910862      -1.52561323      -2.01967036
H        2.59219725      -1.30706169      -0.39276835
H        2.32385522      -0.07310785      -1.64156678
H        1.26280780      -2.94386977      -1.83789278
H        0.98848408      -1.66307880      -2.98085215
H       -0.79693528      -3.42669907      -0.84508818
H       -1.45876692      -2.19394788       0.21546603
H        0.74852067      -2.03559885       1.41577185
H        1.40904406      -3.29647459       0.36198031
H        0.08120441      -3.66571925       1.45345967
H       -1.39026033      -2.09299232      -2.73797714
H       -2.11594901      -1.03771569      -1.53048960
H       -0.92941064       0.93078890      -2.45362489
H       -0.11769859      -0.08258862      -3.66270659
H       -1.86097958       0.11054975      -3.69778004
47
Properties=species:S:1:pos:R:3 charge=1 spin=1 pbc="F F F"
C        2.65686269       1.06245817       3.01299619
N        2.04705600       1.24512986       1.69706652
C        2.87462300       1.96281820       0.73487499
C        0.82145063       0.85306862       1.46271713
C        0.06430919       0.92484632       0.26778305
C       -1.38987652       1.23218587       0.53271438
C       -1.92704543       2.42571315       0.05837174
C       -3.24064178       2.77201639       0.33604767
C       -4.03646360       1.92986021       1.09621468
C       -3.51230574       0.73807678       1.57587003
C       -2.19876253       0.39072290       1.29279909
H        3.55113024       0.44710974       2.92637714
H        2.93510673       2.03352402       3.42114209
H        1.95028654       0.58349584       3.68475859
H        2.29592369       2.22720205      -0.14380197
H        3.72091803       1.34334864       0.43777787
H        3.24873752       2.87235477       1.20689914
H        0.33438264       0.41028575       2.32813313
H        0.49031026       1.57242691      -0.49846548
H        0.07947698      -0.31486682      -0.40176885
H       -1.30484481       3.10269381      -0.51450745
H       -3.63431379       3.70952762      -0.03195779
H       -5.05675111       2.20480195       1.32336385
H       -4.12803000       0.07671083       2.17125829
H       -1.80134138      -0.54072366       1.68190355
C        2.39579278      -1.14409536      -1.45647923
C        1.13800955      -1.86044668      -1.92186678
N       -0.10079942      -1.46111772      -1.18658916
C       -0.53725253      -2.53793755      -0.25689155
C        0.49311267      -2.89717663       0.79782896
C       -1.22106076      -1.19180777      -2.13497710
C       -1.00333622       0.01195999      -3.03348805
H        3.24896500      -1.52321225      -2.02129131
H        2.59245216      -1.30489124      -0.39418752
H        2.32280285      -0.07128779      -1.64306603
H        1.26362116      -2.94280566      -1.83826195
H        0.98820097      -1.66268272      -2.98169353
H       -0.79590837      -3.42653692      -0.84589819
H       -1.45854225      -2.19415458       0.21460575
H        0.74835158      -2.03471197       1.41532313
H        1.40987260      -3.29505784       0.36153053
H        0.08207322      -3.66525871       1.45273369
H       -1.39037625      -2.09257268      -2.73833754
H       -2.11595153      -1.03740329      -1.53068843
H       -0.93005710       0.93128265      -2.45411600
H       -0.11811230      -0.08194547      -3.66314951
H       -1.86144626       0.11074194      -3.69820164
47
Properties=species:S:1:pos:R:3 charge=1 spin=1 pbc="F F F"
C        2.66201868       1.06808200       3.00653784
N        2.04826306       1.25062724       1.69247126
C        2.87115631       1.97132483       0.72860763
C        0.82335935       0.85506518       1.46064060
C        0.06370527       0.92532776       0.26725208
C       -1.39054781       1.22978319       0.53486064
C       -1.93118672       2.42184077       0.06087726
C       -3.24493371       2.76551162       0.34097172
C       -4.03741346       1.92216369       1.10321948
C       -3.50978402       0.73180544       1.58250523
C       -2.19611238       0.38707617       1.29702720
H        3.55846070       0.45657142       2.91654137
H        2.93733275       2.03944124       3.41586959
H        1.95913428       0.58496850       3.67903483
H        2.28687280       2.24284869      -0.14375970
H        3.71312386       1.35147557       0.42153320
H        3.25139390       2.87678311       1.20301704
H        0.33940718       0.41055475       2.32686319
H        0.48712259       1.57347170      -0.49991661
H        0.07959934      -0.31429878      -0.40228982
H       -1.31161641       3.09978046      -0.51365054
H       -3.64133765       3.70193138      -0.02679306
H       -5.05779515       2.19507455       1.33226577
H       -4.12289471       0.06951583       2.17949975
H       -1.79594659      -0.54327311       1.68586977
C        2.39558376      -1.14220262      -1.45786024
C        1.13812858      -1.85950408      -1.92265979
N       -0.10069706      -1.46058889      -1.18718562
C       -0.53678850      -2.53767100      -0.25761302
C        0.49360408      -2.89639095       0.79724884
C       -1.22115935      -1.19138142      -2.13535127
C       -1.00376541       0.01240213      -3.03392190
H        3.24882138      -1.52081126      -2.02291225
H        2.59270707      -1.30272079      -0.39560670
H        2.32175048      -0.06946772      -1.64456528
H        1.26443451      -2.94174155      -1.83863113
H        0.98791787      -1.66228665      -2.98253491
H       -0.79488146      -3.42637477      -0.84670821
H       -1.45831758      -2.19436128       0.21374548
H        0.74818248      -2.03382510       1.41487442
H        1.41070115      -3.29364108       0.36108075
H        0.08294203      -3.66479816       1.45200771
H       -1.39049217      -2.09215304      -2.73869794
H       -2.11595406      -1.03709090      -1.53088727
H       -0.93070356       0.93177641      -2.45460712
H       -0.11852602      -0.08130231      -3.66359242
H       -1.86191293       0.11093413      -3.69862324
47
Properties=species:S:1:pos:R:3 charge=1 spin=1 pbc="F F F"
C        2.66717466       1.07370583       3.00007948
N        2.04947013       1.25612461       1.68787601
C        2.86768962       1.97983146       0.72234026
C        0.82526806       0.85706174       1.45856406
C        0.06310135       0.92580921       0.26672110
C       -1.39121910       1.22738050       0.53700689
C       -1.93532801       2.41796838       0.06338278
C       -3.24922564       2.75900684       0.34589578
C       -4.03836332       1.91446718       1.11022429
C       -3.50726230       0.72553409       1.58914043
C       -2.19346223       0.38342945       1.30125531
H        3.56579117       0.46603309       2.90670560
H        2.93955877       2.04535845       3.41059710
H        1.96798202       0.58644115       3.67331106
H        2.27782191       2.25849534      -0.14371743
H        3.70532969       1.35960250       0.40528853
H        3.25405028       2.88121146       1.19913493
H        0.34443172       0.41082375       2.32559325
H        0.48393492       1.57451649      -0.50136775
H        0.07972170      -0.31373075      -0.40281080
H       -1.31838802       3.09686711      -0.51279362
H       -3.64836151       3.69433514      -0.02162834
H       -5.05883919       2.18534715       1.34116770
H       -4.11775941       0.06232084       2.18774122
H       -1.79055179      -0.54582255       1.68983599
C        2.39537474      -1.14030988      -1.45924125
C        1.13824761      -1.85856148      -1.92345281
N       -0.10059469      -1.46006005      -1.18778208
C       -0.53632447      -2.53740445      -0.25833449
C        0.49409549      -2.89560527       0.79666872
C       -1.22125794      -1.19095507      -2.13572545
C       -1.00419459       0.01284426      -3.03435575
H        3.24867777      -1.51841028      -2.02453320
H        2.59296198      -1.30055034      -0.39702588
H        2.32069811      -0.06764765      -1.64606453
H        1.26524786      -2.94067744      -1.83900031
H        0.98763476      -1.66189058      -2.98337629
H       -0.79385454      -3.42621262      -0.84751822
H       -1.45809291      -2.19456798       0.21288520
H        0.74801338      -2.03293823       1.41442571
H        1.41152969      -3.29222432       0.36063097
H        0.08381083      -3.66433762       1.45128173
H       -1.39060810      -2.09173340      -2.73905835
H       -2.11595659      -1.03677851      -1.53108610
H       -0.93135003       0.93227016      -2.45509824
H       -0.11893973      -0.08065916      -3.66403534
H       -1.86237960       0.11112632      -3.69904484
47
Properties=species:S:1:pos:R:3 charge=1 spin=1 pbc="F F F"
C        2.67233064       1.07932966       2.99362113
N        2.05067719       1.26162199       1.68328075
C        2.86422293       1.98833808       0.71607290
C        0.82717678       0.85905830       1.45648753
C        0.06249742       0.92629065       0.26619013
C       -1.39189039       1.22497782       0.53915315
C       -1.93946929       2.41409599       0.06588831
C       -3.25351757       2.75250207       0.35081983
C       -4.03931318       1.90677066       1.11722909
C       -3.50474058       0.71926275       1.59577564
C       -2.19081209       0.37978272       1.30548343
H        3.57312163       0.47549477       2.89686982
H        2.94178479       2.05127566       3.40532460
H        1.97682976       0.58791381       3.66758730
H        2.26877102       2.27414199      -0.14367516
H        3.69753552       1.36772943       0.38904387
H        3.25670665       2.88563980       1.19525283
H        0.34945627       0.41109275       2.32432331
H        0.48074725       1.57556128      -0.50281888
H        0.07984406      -0.31316272      -0.40333177
H       -1.32515963       3.09395375      -0.51193671
H       -3.65538538       3.68673890      -0.01646362
H       -5.05988324       2.17561975       1.35006963
H       -4.11262412       0.05512585       2.19598268
H       -1.78515700      -0.54837199       1.69380222
C        2.39516571      -1.13841714      -1.46062226
C        1.13836665      -1.85761889      -1.92424582
N       -0.10049233      -1.45953122      -1.18837854
C       -0.53586045      -2.53713790      -0.25905597
C        0.49458691      -2.89481959       0.79608860
C       -1.22135653      -1.19052873      -2.13609963
C       -1.00462378       0.01328640      -3.03478960
H        3.24853415      -1.51600929      -2.02615414
H        2.59321689      -1.29837989      -0.39844505
H        2.31964575      -0.06582759      -1.64756378
H        1.26606122      -2.93961334      -1.83936948
H        0.98735165      -1.66149451      -2.98421767
H       -0.79282763      -3.42605047      -0.84832823
H       -1.45786824      -2.19477468       0.21202492
H        0.74784428      -2.03205135       1.41397699
H        1.41235824      -3.29080757       0.36018119
H        0.08467964      -3.66387707       1.45055575
H       -1.39072402      -2.09131376      -2.73941875
H       -2.11595911      -1.03646611      -1.53128493
H       -0.93199649       0.93276392      -2.45558935
H       -0.11935345      -0.08001600      -3.66447825
H       -1.86284628       0.11131851      -3.69946644
47
Properties=species:S:1:pos:R:3 charge=1 spin=1 pbc="F F F"
C        2.67748662       1.08495349       2.98716277
N        2.05188425       1.26711937       1.67868549
C        2.86075624       1.99684471       0.70980553
C        0.82908550       0.86105486       1.45441100
C        0.06189350       0.92677210       0.26565915
C       -1.39256168       1.22257513       0.54129941
C       -1.94361058       2.41022360       0.06839383
C       -3.25780950       2.74599729       0.35574389
C       -4.04026304       1.89907415       1.12423390
C       -3.50221886       0.71299141       1.60241084
C       -2.18816194       0.37613600       1.30971154
H        3.58045210       0.48495644       2.88703405
H        2.94401081       2.05719287       3.40005211
H        1.98567750       0.58938646       3.66186353
H        2.25972013       2.28978864      -0.14363289
H        3.68974135       1.37585636       0.37279920
H        3.25936303       2.89006815       1.19137072
H        0.35448081       0.41136175       2.32305337
H        0.47755958       1.57660607      -0.50427002
H        0.07996642      -0.31259469      -0.40385275
H       -1.33193124       3.09104040      -0.51107979
H       -3.66240924       3.67914266      -0.01129890
H       -5.06092728       2.16589235       1.35897156
H       -4.10748882       0.04793086       2.20422414
H       -1.77976220      -0.55092143       1.69776844
C        2.39495669      -1.13652440      -1.46200327
C        1.13848568      -1.85667629      -1.92503883
N       -0.10038997      -1.45900238      -1.18897500
C       -0.53539642      -2.53687135      -0.25977744
C        0.49507832      -2.89403391       0.79550848
C       -1.22145512      -1.19010238      -2.13647381
C       -1.00505296       0.01372853      -3.03522345
H        3.24839053      -1.51360831      -2.02777509
H        2.59347180      -1.29620944      -0.39986423
H        2.31859338      -0.06400752      -1.64906303
H        1.26687457      -2.93854923      -1.83973866
H        0.98706854      -1.66109844      -2.98505905
H       -0.79180072      -3.42588832      -0.84913824
H       -1.45764357      -2.19498138       0.21116464
H        0.74767518      -2.03116448       1.41352828
H        1.41318678      -3.28939081       0.35973141
H        0.08554845      -3.66341653       1.44982977
H       -1.39083994      -2.09089412      -2.73977915
H       -2.11596164      -1.03615372      -1.53148376
H       -0.93264295       0.93325767      -2.45608047
H       -0.11976716      -0.07937285      -3.66492117
H       -1.86331295       0.11151070      -3.69988804
