47
Properties=species:S:1:pos:R:3 charge=1 spin=1 pbc="F F F"
C        2.82058998       1.09016121       2.94677811
N        2.13940178       1.33445761       1.69008741
C        2.91412799       2.08720163       0.72410175
C        0.86635464       0.95807297       1.50702624
C        0.05443976       1.13478511       0.43717095
C       -1.41213429       1.24611558       0.63187346
C       -2.07303344       2.31854796       0.01566385
C       -3.41532464       2.56969832       0.25761461
C       -4.13312674       1.75941230       1.12815593
C       -3.48986635       0.70262687       1.76246825
C       -2.14668315       0.44750488       1.51421705
H        3.71879621       0.48896148       2.79015441
H        3.12911216       2.03097536       3.41446053
H        2.16967680       0.56297131       3.64182375
H        2.28380260       2.47748497      -0.07272152
H        3.70225320       1.46680303       0.28406216
H        3.39723274       2.93677513       1.21930016
H        0.41143524       0.54017863       2.39786304
H        0.44468449       1.69408390      -0.40845131
H        0.02611008      -0.64251910      -0.70575189
H       -1.51902437       2.99176429      -0.63191836
H       -3.90019527       3.40934085      -0.22949125
H       -5.18115978       1.95043024       1.31965980
H       -4.03664631       0.06475896       2.45062444
H       -1.66418472      -0.37674116       2.03613227
C        2.42412548      -1.23485648      -1.38096894
C        1.15978700      -1.86847570      -1.91654696
N       -0.12307420      -1.44664756      -1.23527155
C       -0.63288234      -2.50525209      -0.29250223
C        0.34716739      -2.92402685       0.78073273
C       -1.20127361      -1.10648090      -2.22959422
C       -0.89211910       0.08216414      -3.11396099
H        3.27291262      -1.66138982      -1.91970161
H        2.56582530      -1.42864732      -0.31929301
H        2.42303912      -0.16033584      -1.55332539
H        1.18516817      -2.95178138      -1.83227167
H        1.03827600      -1.64106865      -2.96917935
H       -0.89012952      -3.33977423      -0.94152985
H       -1.55398465      -2.11467167       0.13484488
H        0.63143390      -2.08739854       1.41515171
H        1.24677610      -3.38622679       0.37585702
H       -0.14312865      -3.67060368       1.40605839
H       -1.32706762      -2.01617338      -2.80894337
H       -2.10676625      -0.93511801      -1.65247631
H       -0.80049434       0.99946776      -2.53636343
H        0.00123598      -0.05154694      -3.72320889
H       -1.72967716       0.20605876      -3.80009398
47
Properties=species:S:1:pos:R:3 charge=1 spin=1 pbc="F F F"
C        2.81973709       1.08965336       2.94615212
N        2.13903714       1.33348725       1.68909435
C        2.91381338       2.08742709       0.72404856
C        0.86570894       0.95790973       1.50606375
C        0.05358634       1.13555839       0.43655203
C       -1.41294831       1.24660022       0.63147520
C       -2.07397892       2.31932593       0.01591413
C       -3.41623093       2.57025359       0.25817869
C       -4.13382385       1.75947333       1.12844042
C       -3.49044513       0.70234604       1.76204626
C       -2.14731513       0.44734393       1.51337537
H        3.71876852       0.48962897       2.78979039
H        3.12688593       2.03068543       3.41434774
H        2.16909707       0.56140361       3.64064858
H        2.28419491       2.47545782      -0.07442368
H        3.70430181       1.46848562       0.28619942
H        3.39397874       2.93860630       1.21944679
H        0.41084760       0.53958081       2.39672671
H        0.44361700       1.69520785      -0.40894257
H        0.01444985      -0.63942418      -0.70805783
H       -1.52005520       2.99294672      -0.63132697
H       -3.90124251       3.41010571      -0.22842513
H       -5.18182937       1.95035579       1.32023169
H       -4.03710787       0.06408963       2.44993639
H       -1.66470693      -0.37724278       2.03465833
C        2.42578328      -1.22864396      -1.36861565
C        1.16455170      -1.86071132      -1.91312312
N       -0.12326090      -1.44665056      -1.23649267
C       -0.63030512      -2.50761167      -0.29478008
C        0.34892256      -2.92352778       0.78027575
C       -1.19904744      -1.11653968      -2.23724821
C       -0.89737669       0.07938711      -3.11466452
H        3.27688516      -1.65144873      -1.90673715
H        2.56386197      -1.42797501      -0.30750497
H        2.42416946      -0.15319772      -1.53509861
H        1.19102062      -2.94463549      -1.83563605
H        1.04795079      -1.62673840      -2.96496519
H       -0.88303714      -3.34295964      -0.94460293
H       -1.55383022      -2.12078272       0.13087893
H        0.62986144      -2.08615659       1.41519234
H        1.25036644      -3.38351916       0.37696284
H       -0.14071477      -3.67132789       1.40467749
H       -1.30932941      -2.02590686      -2.82099223
H       -2.11120814      -0.95837392      -1.66622996
H       -0.82152705       0.99570100      -2.53248435
H        0.00266867      -0.04126317      -3.71740965
H       -1.73116891       0.19575027      -3.80691921
47
Properties=species:S:1:pos:R:3 charge=1 spin=1 pbc="F F F"
C        2.81888420       1.08914550       2.94552614
N        2.13867251       1.33251690       1.68810130
C        2.91349878       2.08765256       0.72399537
C        0.86506324       0.95774650       1.50510125
C        0.05273292       1.13633166       0.43593311
C       -1.41376232       1.24708486       0.63107693
C       -2.07492440       2.32010389       0.01616441
C       -3.41713721       2.57080885       0.25874278
C       -4.13452097       1.75953437       1.12872492
C       -3.49102391       0.70206522       1.76162427
C       -2.14794712       0.44718299       1.51253369
H        3.71874084       0.49029646       2.78942638
H        3.12465969       2.03039550       3.41423496
H        2.16851735       0.55983590       3.63947341
H        2.28458722       2.47343068      -0.07612585
H        3.70635043       1.47016821       0.28833667
H        3.39072473       2.94043748       1.21959343
H        0.41025995       0.53898298       2.39559038
H        0.44254952       1.69633181      -0.40943383
H        0.00278963      -0.63632925      -0.71036378
H       -1.52108604       2.99412915      -0.63073557
H       -3.90228974       3.41087057      -0.22735900
H       -5.18249895       1.95028135       1.32080359
H       -4.03756944       0.06342030       2.44924834
H       -1.66522915      -0.37774440       2.03318440
C        2.42744107      -1.22243143      -1.35626235
C        1.16931639      -1.85294693      -1.90969929
N       -0.12344761      -1.44665356      -1.23771380
C       -0.62772789      -2.50997126      -0.29705794
C        0.35067772      -2.92302872       0.77981877
C       -1.19682126      -1.12659846      -2.24490221
C       -0.90263427       0.07661008      -3.11536804
H        3.28085769      -1.64150763      -1.89377268
H        2.56189863      -1.42730270      -0.29571692
H        2.42529980      -0.14605961      -1.51687183
H        1.19687307      -2.93748960      -1.83900044
H        1.05762557      -1.61240815      -2.96075103
H       -0.87594476      -3.34614506      -0.94767602
H       -1.55367580      -2.12689376       0.12691298
H        0.62828898      -2.08491463       1.41523298
H        1.25395678      -3.38081153       0.37806866
H       -0.13830090      -3.67205209       1.40329660
H       -1.29159121      -2.03564033      -2.83304108
H       -2.11565002      -0.98162983      -1.67998360
H       -0.84255975       0.99193423      -2.52860528
H        0.00410136      -0.03097940      -3.71161040
H       -1.73266066       0.18544178      -3.81374443
47
Properties=species:S:1:pos:R:3 charge=1 spin=1 pbc="F F F"
C        2.81803131       1.08863765       2.94490015
N        2.13830788       1.33154654       1.68710824
C        2.91318417       2.08787802       0.72394217
C        0.86441754       0.95758327       1.50413876
C        0.05187949       1.13710493       0.43531420
C       -1.41457634       1.24756950       0.63067866
C       -2.07586988       2.32088186       0.01641469
C       -3.41804349       2.57136411       0.25930687
C       -4.13521808       1.75959540       1.12900941
C       -3.49160269       0.70178440       1.76120228
C       -2.14857911       0.44702204       1.51169201
H        3.71871316       0.49096395       2.78906236
H        3.12243345       2.03010557       3.41412218
H        2.16793762       0.55826819       3.63829824
H        2.28497953       2.47140354      -0.07782802
H        3.70839904       1.47185079       0.29047392
H        3.38747073       2.94226866       1.21974006
H        0.40967230       0.53838515       2.39445405
H        0.44148204       1.69745576      -0.40992509
H       -0.00887060      -0.63323433      -0.71266973
H       -1.52211687       2.99531158      -0.63014417
H       -3.90333698       3.41163543      -0.22629288
H       -5.18316854       1.95020691       1.32137549
H       -4.03803100       0.06275097       2.44856028
H       -1.66575136      -0.37824602       2.03171046
C        2.42909887      -1.21621890      -1.34390905
C        1.17408108      -1.84518254      -1.90627545
N       -0.12363431      -1.44665656      -1.23893492
C       -0.62515067      -2.51233085      -0.29933579
C        0.35243288      -2.92252965       0.77936179
C       -1.19459509      -1.13665724      -2.25255620
C       -0.90789186       0.07383305      -3.11607157
H        3.28483023      -1.63156653      -1.88080822
H        2.55993530      -1.42663039      -0.28392888
H        2.42643015      -0.13892149      -1.49864505
H        1.20272551      -2.93034371      -1.84236482
H        1.06730036      -1.59807790      -2.95653687
H       -0.86885238      -3.34933047      -0.95074910
H       -1.55352137      -2.13300481       0.12294703
H        0.62671652      -2.08367267       1.41527361
H        1.25754711      -3.37810389       0.37917448
H       -0.13588703      -3.67277630       1.40191570
H       -1.27385300      -2.04537381      -2.84508993
H       -2.12009191      -1.00488574      -1.69373725
H       -0.86359246       0.98816747      -2.52472621
H        0.00553405      -0.02069563      -3.70581115
H       -1.73415241       0.17513330      -3.82056965
47
Properties=species:S:1:pos:R:3 charge=1 spin=1 pbc="F F F"
C        2.81717841       1.08812979       2.94427417
N        2.13794325       1.33057619       1.68611519
C        2.91286956       2.08810349       0.72388898
C        0.86377184       0.95742004       1.50317626
C        0.05102607       1.13787820       0.43469528
C       -1.41539036       1.24805414       0.63028040
C       -2.07681536       2.32165982       0.01666497
C       -3.41894978       2.57191938       0.25987095
C       -4.13591520       1.75965643       1.12929390
C       -3.49218147       0.70150358       1.76078029
C       -2.14921109       0.44686110       1.51085032
H        3.71868547       0.49163144       2.78869835
H        3.12020722       2.02981564       3.41400939
H        2.16735790       0.55670049       3.63712307
H        2.28537184       2.46937640      -0.07953019
H        3.71044766       1.47353338       0.29261118
H        3.38421672       2.94409983       1.21988670
H        0.40908466       0.53778733       2.39331772
H        0.44041455       1.69857972      -0.41041635
H       -0.02053082      -0.63013940      -0.71497567
H       -1.52314771       2.99649401      -0.62955277
H       -3.90438421       3.41240029      -0.22522675
H       -5.18383812       1.95013247       1.32194739
H       -4.03849256       0.06208164       2.44787223
H       -1.66627358      -0.37874764       2.03023653
C        2.43075666      -1.21000637      -1.33155576
C        1.17884578      -1.83741816      -1.90285161
N       -0.12382102      -1.44665957      -1.24015605
C       -0.62257345      -2.51469044      -0.30161365
C        0.35418804      -2.92203059       0.77890481
C       -1.19236892      -1.14671603      -2.26021019
C       -0.91314945       0.07105602      -3.11677509
H        3.28880277      -1.62162543      -1.86784375
H        2.55797197      -1.42595808      -0.27214083
H        2.42756049      -0.13178338      -1.48041827
H        1.20857796      -2.92319782      -1.84572921
H        1.07697515      -1.58374765      -2.95232271
H       -0.86176000      -3.35251588      -0.95382218
H       -1.55336694      -2.13911586       0.11898109
H        0.62514406      -2.08243071       1.41531425
H        1.26113745      -3.37539626       0.38028030
H       -0.13347315      -3.67350050       1.40053481
H       -1.25611479      -2.05510728      -2.85713878
H       -2.12453379      -1.02814164      -1.70749089
H       -0.88462517       0.98440071      -2.52084714
H        0.00696675      -0.01041186      -3.70001190
H       -1.73564416       0.16482481      -3.82739487
47
Properties=species:S:1:pos:R:3 charge=1 spin=1 pbc="F F F"
C        2.81632552       1.08762193       2.94364818
N        2.13757861       1.32960583       1.68512213
C        2.91255495       2.08832895       0.72383579
C        0.86312614       0.95725680       1.50221376
C        0.05017265       1.13865148       0.43407636
C       -1.41620438       1.24853878       0.62988213
C       -2.07776084       2.32243779       0.01691525
C       -3.41985606       2.57247464       0.26043504
C       -4.13661232       1.75971746       1.12957839
C       -3.49276025       0.70122275       1.76035830
C       -2.14984308       0.44670016       1.51000864
H        3.71865779       0.49229892       2.78833433
H        3.11798098       2.02952571       3.41389661
H        2.16677818       0.55513278       3.63594790
H        2.28576415       2.46734925      -0.08123235
H        3.71249627       1.47521597       0.29474843
H        3.38096272       2.94593101       1.22003334
H        0.40849701       0.53718950       2.39218139
H        0.43934707       1.69970367      -0.41090761
H       -0.03219105      -0.62704447      -0.71728162
H       -1.52417854       2.99767644      -0.62896138
H       -3.90543145       3.41316514      -0.22416062
H       -5.18450770       1.95005802       1.32251928
H       -4.03895412       0.06141231       2.44718418
H       -1.66679580      -0.37924926       2.02876260
C        2.43241446      -1.20379385      -1.31920246
C        1.18361047      -1.82965377      -1.89942777
N       -0.12400772      -1.44666257      -1.24137718
C       -0.61999623      -2.51705002      -0.30389150
C        0.35594321      -2.92153152       0.77844783
C       -1.19014275      -1.15677481      -2.26786418
C       -0.91840704       0.06827899      -3.11747862
H        3.29277531      -1.61168434      -1.85487929
H        2.55600864      -1.42528577      -0.26035278
H        2.42869083      -0.12464526      -1.46219149
H        1.21443041      -2.91605193      -1.84909359
H        1.08664994      -1.56941740      -2.94810855
H       -0.85466762      -3.35570129      -0.95689526
H       -1.55321251      -2.14522691       0.11501514
H        0.62357160      -2.08118876       1.41535488
H        1.26472779      -3.37268863       0.38138612
H       -0.13105928      -3.67422470       1.39915391
H       -1.23837658      -2.06484076      -2.86918764
H       -2.12897568      -1.05139755      -1.72124454
H       -0.90565788       0.98063395      -2.51696806
H        0.00839944      -0.00012809      -3.69421266
H       -1.73713591       0.15451632      -3.83422010
47
Properties=species:S:1:pos:R:3 charge=1 spin=1 pbc="F F F"
C        2.81547263       1.08711408       2.94302220
N        2.13721398       1.32863548       1.68412908
C        2.91224035       2.08855442       0.72378260
C        0.86248044       0.95709357       1.50125127
C        0.04931923       1.13942475       0.43345744
C       -1.41701840       1.24902342       0.62948386
C       -2.07870632       2.32321575       0.01716552
C       -3.42076234       2.57302990       0.26099913
C       -4.13730943       1.75977849       1.12986288
C       -3.49333903       0.70094193       1.75993631
C       -2.15047507       0.44653921       1.50916696
H        3.71863010       0.49296641       2.78797032
H        3.11575474       2.02923578       3.41378383
H        2.16619845       0.55356507       3.63477273
H        2.28615646       2.46532211      -0.08293452
H        3.71454489       1.47689856       0.29688568
H        3.37770871       2.94776219       1.22017997
H        0.40790937       0.53659167       2.39104506
H        0.43827959       1.70082763      -0.41139887
H       -0.04385127      -0.62394955      -0.71958756
H       -1.52520938       2.99885887      -0.62836998
H       -3.90647868       3.41393000      -0.22309450
H       -5.18517729       1.94998358       1.32309118
H       -4.03941568       0.06074298       2.44649613
H       -1.66731801      -0.37975088       2.02728866
C        2.43407225      -1.19758132      -1.30684916
C        1.18837516      -1.82188938      -1.89600393
N       -0.12419443      -1.44666557      -1.24259830
C       -0.61741901      -2.51940961      -0.30616936
C        0.35769837      -2.92103246       0.77799085
C       -1.18791657      -1.16683359      -2.27551818
C       -0.92366463       0.06550195      -3.11818214
H        3.29674785      -1.60174324      -1.84191482
H        2.55404530      -1.42461346      -0.24856474
H        2.42982117      -0.11750715      -1.44396471
H        1.22028286      -2.90890604      -1.85245798
H        1.09632473      -1.55508715      -2.94389439
H       -0.84757523      -3.35888670      -0.95996835
H       -1.55305809      -2.15133795       0.11104919
H        0.62199914      -2.07994680       1.41539552
H        1.26831813      -3.36998100       0.38249194
H       -0.12864541      -3.67494891       1.39777302
H       -1.22063837      -2.07457423      -2.88123649
H       -2.13341756      -1.07465346      -1.73499818
H       -0.92669059       0.97686719      -2.51308899
H        0.00983213       0.01015567      -3.68841341
H       -1.73862767       0.14420783      -3.84104532
47
Properties=species:S:1:pos:R:3 charge=1 spin=1 pbc="F F F"
C        2.81461974       1.08660622       2.94239621
N        2.13684935       1.32766512       1.68313602
C        2.91192574       2.08877988       0.72372941
C        0.86183474       0.95693034       1.50028877
C        0.04846581       1.14019802       0.43283852
C       -1.41783241       1.24950806       0.62908560
C       -2.07965180       2.32399371       0.01741580
C       -3.42166863       2.57358517       0.26156322
C       -4.13800655       1.75983953       1.13014738
C       -3.49391781       0.70066111       1.75951432
C       -2.15110705       0.44637827       1.50832528
H        3.71860242       0.49363390       2.78760630
H        3.11352850       2.02894585       3.41367104
H        2.16561873       0.55199737       3.63359756
H        2.28654877       2.46329497      -0.08463669
H        3.71659350       1.47858115       0.29902294
H        3.37445471       2.94959336       1.22032661
H        0.40732172       0.53599384       2.38990873
H        0.43721211       1.70195158      -0.41189013
H       -0.05551150      -0.62085462      -0.72189351
H       -1.52624021       3.00004130      -0.62777858
H       -3.90752591       3.41469486      -0.22202837
H       -5.18584687       1.94990914       1.32366308
H       -4.03987724       0.06007364       2.44580808
H       -1.66784023      -0.38025250       2.02581473
C        2.43573005      -1.19136879      -1.29449587
C        1.19313986      -1.81412500      -1.89258010
N       -0.12438114      -1.44666857      -1.24381943
C       -0.61484179      -2.52176920      -0.30844722
C        0.35945353      -2.92053340       0.77753387
C       -1.18569040      -1.17689237      -2.28317217
C       -0.92892222       0.06272492      -3.11888567
H        3.30072038      -1.59180214      -1.82895036
H        2.55208197      -1.42394115      -0.23677669
H        2.43095151      -0.11036903      -1.42573793
H        1.22613531      -2.90176015      -1.85582236
H        1.10599951      -1.54075689      -2.93968023
H       -0.84048285      -3.36207212      -0.96304143
H       -1.55290366      -2.15744900       0.10708324
H        0.62042668      -2.07870484       1.41543615
H        1.27190847      -3.36727337       0.38359776
H       -0.12623153      -3.67567311       1.39639212
H       -1.20290016      -2.08430770      -2.89328534
H       -2.13785944      -1.09790937      -1.74875183
H       -0.94772330       0.97310043      -2.50920992
H        0.01126482       0.02043944      -3.68261416
H       -1.74011942       0.13389934      -3.84787054
47
Properties=species:S:1:pos:R:3 charge=1 spin=1 pbc="F F F"
C        2.81376685       1.08609837       2.94177023
N        2.13648471       1.32669477       1.68214297
C        2.91161113       2.08900535       0.72367622
C        0.86118904       0.95676711       1.49932628
C        0.04761239       1.14097130       0.43221960
C       -1.41864643       1.24999270       0.62868733
C       -2.08059728       2.32477168       0.01766608
C       -3.42257491       2.57414043       0.26212730
C       -4.13870366       1.75990056       1.13043187
C       -3.49449659       0.70038029       1.75909233
C       -2.15173904       0.44621732       1.50748360
H        3.71857474       0.49430139       2.78724229
H        3.11130227       2.02865592       3.41355826
H        2.16503900       0.55042966       3.63242239
H        2.28694108       2.46126782      -0.08633885
H        3.71864212       1.48026374       0.30116019
H        3.37120070       2.95142454       1.22047324
H        0.40673407       0.53539602       2.38877240
H        0.43614462       1.70307554      -0.41238139
H       -0.06717172      -0.61775969      -0.72419946
H       -1.52727105       3.00122373      -0.62718718
H       -3.90857315       3.41545972      -0.22096224
H       -5.18651646       1.94983470       1.32423498
H       -4.04033881       0.05940431       2.44512003
H       -1.66836245      -0.38075412       2.02434079
C        2.43738784      -1.18515626      -1.28214257
C        1.19790455      -1.80636061      -1.88915626
N       -0.12456784      -1.44667157      -1.24504055
C       -0.61226456      -2.52412879      -0.31072507
C        0.36120869      -2.92003433       0.77707689
C       -1.18346423      -1.18695115      -2.29082616
C       -0.93417980       0.05994789      -3.11958919
H        3.30469292      -1.58186105      -1.81598589
H        2.55011864      -1.42326884      -0.22498865
H        2.43208185      -0.10323092      -1.40751116
H        1.23198776      -2.89461427      -1.85918675
H        1.11567430      -1.52642664      -2.93546607
H       -0.83339047      -3.36525753      -0.96611451
H       -1.55274923      -2.16356005       0.10311729
H        0.61885422      -2.07746288       1.41547679
H        1.27549881      -3.36456574       0.38470358
H       -0.12381766      -3.67639732       1.39501123
H       -1.18516196      -2.09404118      -2.90533419
H       -2.14230133      -1.12116528      -1.76250547
H       -0.96875600       0.96933366      -2.50533085
H        0.01269751       0.03072321      -3.67681492
H       -1.74161117       0.12359085      -3.85469576
47
Properties=species:S:1:pos:R:3 charge=1 spin=1 pbc="F F F"
C        2.81291396       1.08559051       2.94114424
N        2.13612008       1.32572441       1.68114991
C        2.91129652       2.08923081       0.72362302
C        0.86054334       0.95660387       1.49836378
C        0.04675897       1.14174457       0.43160068
C       -1.41946045       1.25047734       0.62828906
C       -2.08154276       2.32554964       0.01791636
C       -3.42348119       2.57469570       0.26269139
C       -4.13940078       1.75996159       1.13071636
C       -3.49507537       0.70009946       1.75867034
C       -2.15237102       0.44605638       1.50664192
H        3.71854705       0.49496888       2.78687827
H        3.10907603       2.02836599       3.41344548
H        2.16445928       0.54886196       3.63124722
H        2.28733339       2.45924068      -0.08804102
H        3.72069073       1.48194633       0.30329744
H        3.36794670       2.95325572       1.22061988
H        0.40614643       0.53479819       2.38763607
H        0.43507714       1.70419949      -0.41287265
H       -0.07883194      -0.61466477      -0.72650540
H       -1.52830188       3.00240616      -0.62659579
H       -3.90962038       3.41622458      -0.21989612
H       -5.18718604       1.94976025       1.32480687
H       -4.04080037       0.05873498       2.44443198
H       -1.66888466      -0.38125574       2.02286686
C        2.43904563      -1.17894374      -1.26978927
C        1.20266924      -1.79859622      -1.88573242
N       -0.12475455      -1.44667457      -1.24626168
C       -0.60968734      -2.52648837      -0.31300293
C        0.36296386      -2.91953527       0.77661991
C       -1.18123806      -1.19700993      -2.29848015
C       -0.93943739       0.05717086      -3.12029272
H        3.30866546      -1.57191995      -1.80302143
H        2.54815531      -1.42259653      -0.21320060
H        2.43321219      -0.09609280      -1.38928438
H        1.23784020      -2.88746838      -1.86255113
H        1.12534909      -1.51209639      -2.93125191
H       -0.82629809      -3.36844294      -0.96918759
H       -1.55259480      -2.16967110       0.09915134
H        0.61728177      -2.07622093       1.41551742
H        1.27908915      -3.36185811       0.38580940
H       -0.12140379      -3.67712152       1.39363034
H       -1.16742375      -2.10377465      -2.91738305
H       -2.14674321      -1.14442119      -1.77625911
H       -0.98978871       0.96556690      -2.50145177
H        0.01413020       0.04100698      -3.67101567
H       -1.74310292       0.11328236      -3.86152099
47
Properties=species:S:1:pos:R:3 charge=1 spin=1 pbc="F F F"
C        2.81376685       1.08609837       2.94177023
N        2.13648471       1.32669477       1.68214297
C        2.91161113       2.08900535       0.72367622
C        0.86118904       0.95676711       1.49932628
C        0.04761239       1.14097130       0.43221960
C       -1.41864643       1.24999270       0.62868733
C       -2.08059728       2.32477168       0.01766608
C       -3.42257491       2.57414043       0.26212730
C       -4.13870366       1.75990056       1.13043187
C       -3.49449659       0.70038029       1.75909233
C       -2.15173904       0.44621732       1.50748360
H        3.71857474       0.49430139       2.78724229
H        3.11130227       2.02865592       3.41355826
H        2.16503900       0.55042966       3.63242239
H        2.28694108       2.46126782      -0.08633885
H        3.71864212       1.48026374       0.30116019
H        3.37120070       2.95142454       1.22047324
H        0.40673407       0.53539602       2.38877240
H        0.43614462       1.70307554      -0.41238139
H       -0.06717172      -0.61775969      -0.72419946
H       -1.52727105       3.00122373      -0.62718718
H       -3.90857315       3.41545972      -0.22096224
H       -5.18651646       1.94983470       1.32423498
H       -4.04033881       0.05940431       2.44512003
H       -1.66836245      -0.38075412       2.02434079
C        2.43738784      -1.18515626      -1.28214257
C        1.19790455      -1.80636061      -1.88915626
N       -0.12456784      -1.44667157      -1.24504055
C       -0.61226456      -2.52412879      -0.31072507
C        0.36120869      -2.92003433       0.77707689
C       -1.18346423      -1.18695115      -2.29082616
C       -0.93417980       0.05994789      -3.11958919
H        3.30469292      -1.58186105      -1.81598589
H        2.55011864      -1.42326884      -0.22498865
H        2.43208185      -0.10323092      -1.40751116
H        1.23198776      -2.89461427      -1.85918675
H        1.11567430      -1.52642664      -2.93546607
H       -0.83339047      -3.36525753      -0.96611451
H       -1.55274923      -2.16356005       0.10311729
H        0.61885422      -2.07746288       1.41547679
H        1.27549881      -3.36456574       0.38470358
H       -0.12381766      -3.67639732       1.39501123
H       -1.18516196      -2.09404118      -2.90533419
H       -2.14230133      -1.12116528      -1.76250547
H       -0.96875600       0.96933366      -2.50533085
H        0.01269751       0.03072321      -3.67681492
H       -1.74161117       0.12359085      -3.85469576
47
Properties=species:S:1:pos:R:3 charge=1 spin=1 pbc="F F F"
C        2.81461974       1.08660622       2.94239621
N        2.13684935       1.32766512       1.68313602
C        2.91192574       2.08877988       0.72372941
C        0.86183474       0.95693034       1.50028877
C        0.04846581       1.14019802       0.43283852
C       -1.41783241       1.24950806       0.62908560
C       -2.07965180       2.32399371       0.01741580
C       -3.42166863       2.57358517       0.26156322
C       -4.13800655       1.75983953       1.13014738
C       -3.49391781       0.70066111       1.75951432
C       -2.15110705       0.44637827       1.50832528
H        3.71860242       0.49363390       2.78760630
H        3.11352850       2.02894585       3.41367104
H        2.16561873       0.55199737       3.63359756
H        2.28654877       2.46329497      -0.08463669
H        3.71659350       1.47858115       0.29902294
H        3.37445471       2.94959336       1.22032661
H        0.40732172       0.53599384       2.38990873
H        0.43721211       1.70195158      -0.41189013
H       -0.05551150      -0.62085462      -0.72189351
H       -1.52624021       3.00004130      -0.62777858
H       -3.90752591       3.41469486      -0.22202837
H       -5.18584687       1.94990914       1.32366308
H       -4.03987724       0.06007364       2.44580808
H       -1.66784023      -0.38025250       2.02581473
C        2.43573005      -1.19136879      -1.29449587
C        1.19313986      -1.81412500      -1.89258010
N       -0.12438114      -1.44666857      -1.24381943
C       -0.61484179      -2.52176920      -0.30844722
C        0.35945353      -2.92053340       0.77753387
C       -1.18569040      -1.17689237      -2.28317217
C       -0.92892222       0.06272492      -3.11888567
H        3.30072038      -1.59180214      -1.82895036
H        2.55208197      -1.42394115      -0.23677669
H        2.43095151      -0.11036903      -1.42573793
H        1.22613531      -2.90176015      -1.85582236
H        1.10599951      -1.54075689      -2.93968023
H       -0.84048285      -3.36207212      -0.96304143
H       -1.55290366      -2.15744900       0.10708324
H        0.62042668      -2.07870484       1.41543615
H        1.27190847      -3.36727337       0.38359776
H       -0.12623153      -3.67567311       1.39639212
H       -1.20290016      -2.08430770      -2.89328534
H       -2.13785944      -1.09790937      -1.74875183
H       -0.94772330       0.97310043      -2.50920992
H        0.01126482       0.02043944      -3.68261416
H       -1.74011942       0.13389934      -3.84787054
47
Properties=species:S:1:pos:R:3 charge=1 spin=1 pbc="F F F"
C        2.81547263       1.08711408       2.94302220
N        2.13721398       1.32863548       1.68412908
C        2.91224035       2.08855442       0.72378260
C        0.86248044       0.95709357       1.50125127
C        0.04931923       1.13942475       0.43345744
C       -1.41701840       1.24902342       0.62948386
C       -2.07870632       2.32321575       0.01716552
C       -3.42076234       2.57302990       0.26099913
C       -4.13730943       1.75977849       1.12986288
C       -3.49333903       0.70094193       1.75993631
C       -2.15047507       0.44653921       1.50916696
H        3.71863010       0.49296641       2.78797032
H        3.11575474       2.02923578       3.41378383
H        2.16619845       0.55356507       3.63477273
H        2.28615646       2.46532211      -0.08293452
H        3.71454489       1.47689856       0.29688568
H        3.37770871       2.94776219       1.22017997
H        0.40790937       0.53659167       2.39104506
H        0.43827959       1.70082763      -0.41139887
H       -0.04385127      -0.62394955      -0.71958756
H       -1.52520938       2.99885887      -0.62836998
H       -3.90647868       3.41393000      -0.22309450
H       -5.18517729       1.94998358       1.32309118
H       -4.03941568       0.06074298       2.44649613
H       -1.66731801      -0.37975088       2.02728866
C        2.43407225      -1.19758132      -1.30684916
C        1.18837516      -1.82188938      -1.89600393
N       -0.12419443      -1.44666557      -1.24259830
C       -0.61741901      -2.51940961      -0.30616936
C        0.35769837      -2.92103246       0.77799085
C       -1.18791657      -1.16683359      -2.27551818
C       -0.92366463       0.06550195      -3.11818214
H        3.29674785      -1.60174324      -1.84191482
H        2.55404530      -1.42461346      -0.24856474
H        2.42982117      -0.11750715      -1.44396471
H        1.22028286      -2.90890604      -1.85245798
H        1.09632473      -1.55508715      -2.94389439
H       -0.84757523      -3.35888670      -0.95996835
H       -1.55305809      -2.15133795       0.11104919
H        0.62199914      -2.07994680       1.41539552
H        1.26831813      -3.36998100       0.38249194
H       -0.12864541      -3.67494891       1.39777302
H       -1.22063837      -2.07457423      -2.88123649
H       -2.13341756      -1.07465346      -1.73499818
H       -0.92669059       0.97686719      -2.51308899
H        0.00983213       0.01015567      -3.68841341
H       -1.73862767       0.14420783      -3.84104532
47
Properties=species:S:1:pos:R:3 charge=1 spin=1 pbc="F F F"
C        2.81632552       1.08762193       2.94364818
N        2.13757861       1.32960583       1.68512213
C        2.91255495       2.08832895       0.72383579
C        0.86312614       0.95725680       1.50221376
C        0.05017265       1.13865148       0.43407636
C       -1.41620438       1.24853878       0.62988213
C       -2.07776084       2.32243779       0.01691525
C       -3.41985606       2.57247464       0.26043504
C       -4.13661232       1.75971746       1.12957839
C       -3.49276025       0.70122275       1.76035830
C       -2.14984308       0.44670016       1.51000864
H        3.71865779       0.49229892       2.78833433
H        3.11798098       2.02952571       3.41389661
H        2.16677818       0.55513278       3.63594790
H        2.28576415       2.46734925      -0.08123235
H        3.71249627       1.47521597       0.29474843
H        3.38096272       2.94593101       1.22003334
H        0.40849701       0.53718950       2.39218139
H        0.43934707       1.69970367      -0.41090761
H       -0.03219105      -0.62704447      -0.71728162
H       -1.52417854       2.99767644      -0.62896138
H       -3.90543145       3.41316514      -0.22416062
H       -5.18450770       1.95005802       1.32251928
H       -4.03895412       0.06141231       2.44718418
H       -1.66679580      -0.37924926       2.02876260
C        2.43241446      -1.20379385      -1.31920246
C        1.18361047      -1.82965377      -1.89942777
N       -0.12400772      -1.44666257      -1.24137718
C       -0.61999623      -2.51705002      -0.30389150
C        0.35594321      -2.92153152       0.77844783
C       -1.19014275      -1.15677481      -2.26786418
C       -0.91840704       0.06827899      -3.11747862
H        3.29277531      -1.61168434      -1.85487929
H        2.55600864      -1.42528577      -0.26035278
H        2.42869083      -0.12464526      -1.46219149
H        1.21443041      -2.91605193      -1.84909359
H        1.08664994      -1.56941740      -2.94810855
H       -0.85466762      -3.35570129      -0.95689526
H       -1.55321251      -2.14522691       0.11501514
H        0.62357160      -2.08118876       1.41535488
H        1.26472779      -3.37268863       0.38138612
H       -0.13105928      -3.67422470       1.39915391
H       -1.23837658      -2.06484076      -2.86918764
H       -2.12897568      -1.05139755      -1.72124454
H       -0.90565788       0.98063395      -2.51696806
H        0.00839944      -0.00012809      -3.69421266
H       -1.73713591       0.15451632      -3.83422010
47
Properties=species:S:1:pos:R:3 charge=1 spin=1 pbc="F F F"
C        2.81717841       1.08812979       2.94427417
N        2.13794325       1.33057619       1.68611519
C        2.91286956       2.08810349       0.72388898
C        0.86377184       0.95742004       1.50317626
C        0.05102607       1.13787820       0.43469528
C       -1.41539036       1.24805414       0.63028040
C       -2.07681536       2.32165982       0.01666497
C       -3.41894978       2.57191938       0.25987095
C       -4.13591520       1.75965643       1.12929390
C       -3.49218147       0.70150358       1.76078029
C       -2.14921109       0.44686110       1.51085032
H        3.71868547       0.49163144       2.78869835
H        3.12020722       2.02981564       3.41400939
H        2.16735790       0.55670049       3.63712307
H        2.28537184       2.46937640      -0.07953019
H        3.71044766       1.47353338       0.29261118
H        3.38421672       2.94409983       1.21988670
H        0.40908466       0.53778733       2.39331772
H        0.44041455       1.69857972      -0.41041635
H       -0.02053082      -0.63013940      -0.71497567
H       -1.52314771       2.99649401      -0.62955277
H       -3.90438421       3.41240029      -0.22522675
H       -5.18383812       1.95013247       1.32194739
H       -4.03849256       0.06208164       2.44787223
H       -1.66627358      -0.37874764       2.03023653
C        2.43075666      -1.21000637      -1.33155576
C        1.17884578      -1.83741816      -1.90285161
N       -0.12382102      -1.44665957      -1.24015605
C       -0.62257345      -2.51469044      -0.30161365
C        0.35418804      -2.92203059       0.77890481
C       -1.19236892      -1.14671603      -2.26021019
C       -0.91314945       0.07105602      -3.11677509
H        3.28880277      -1.62162543      -1.86784375
H        2.55797197      -1.42595808      -0.27214083
H        2.42756049      -0.13178338      -1.48041827
H        1.20857796      -2.92319782      -1.84572921
H        1.07697515      -1.58374765      -2.95232271
H       -0.86176000      -3.35251588      -0.95382218
H       -1.55336694      -2.13911586       0.11898109
H        0.62514406      -2.08243071       1.41531425
H        1.26113745      -3.37539626       0.38028030
H       -0.13347315      -3.67350050       1.40053481
H       -1.25611479      -2.05510728      -2.85713878
H       -2.12453379      -1.02814164      -1.70749089
H       -0.88462517       0.98440071      -2.52084714
H        0.00696675      -0.01041186      -3.70001190
H       -1.73564416       0.16482481      -3.82739487
47
Properties=species:S:1:pos:R:3 charge=1 spin=1 pbc="F F F"
C        2.81803131       1.08863765       2.94490015
N        2.13830788       1.33154654       1.68710824
C        2.91318417       2.08787802       0.72394217
C        0.86441754       0.95758327       1.50413876
C        0.05187949       1.13710493       0.43531420
C       -1.41457634       1.24756950       0.63067866
C       -2.07586988       2.32088186       0.01641469
C       -3.41804349       2.57136411       0.25930687
C       -4.13521808       1.75959540       1.12900941
C       -3.49160269       0.70178440       1.76120228
C       -2.14857911       0.44702204       1.51169201
H        3.71871316       0.49096395       2.78906236
H        3.12243345       2.03010557       3.41412218
H        2.16793762       0.55826819       3.63829824
H        2.28497953       2.47140354      -0.07782802
H        3.70839904       1.47185079       0.29047392
H        3.38747073       2.94226866       1.21974006
H        0.40967230       0.53838515       2.39445405
H        0.44148204       1.69745576      -0.40992509
H       -0.00887060      -0.63323433      -0.71266973
H       -1.52211687       2.99531158      -0.63014417
H       -3.90333698       3.41163543      -0.22629288
H       -5.18316854       1.95020691       1.32137549
H       -4.03803100       0.06275097       2.44856028
H       -1.66575136      -0.37824602       2.03171046
C        2.42909887      -1.21621890      -1.34390905
C        1.17408108      -1.84518254      -1.90627545
N       -0.12363431      -1.44665656      -1.23893492
C       -0.62515067      -2.51233085      -0.29933579
C        0.35243288      -2.92252965       0.77936179
C       -1.19459509      -1.13665724      -2.25255620
C       -0.90789186       0.07383305      -3.11607157
H        3.28483023      -1.63156653      -1.88080822
H        2.55993530      -1.42663039      -0.28392888
H        2.42643015      -0.13892149      -1.49864505
H        1.20272551      -2.93034371      -1.84236482
H        1.06730036      -1.59807790      -2.95653687
H       -0.86885238      -3.34933047      -0.95074910
H       -1.55352137      -2.13300481       0.12294703
H        0.62671652      -2.08367267       1.41527361
H        1.25754711      -3.37810389       0.37917448
H       -0.13588703      -3.67277630       1.40191570
H       -1.27385300      -2.04537381      -2.84508993
H       -2.12009191      -1.00488574      -1.69373725
H       -0.86359246       0.98816747      -2.52472621
H        0.00553405      -0.02069563      -3.70581115
H       -1.73415241       0.17513330      -3.82056965
47
Properties=species:S:1:pos:R:3 charge=1 spin=1 pbc="F F F"
C        2.81888420       1.08914550       2.94552614
N        2.13867251       1.33251690       1.68810130
C        2.91349878       2.08765256       0.72399537
C        0.86506324       0.95774650       1.50510125
C        0.05273292       1.13633166       0.43593311
C       -1.41376232       1.24708486       0.63107693
C       -2.07492440       2.32010389       0.01616441
C       -3.41713721       2.57080885       0.25874278
C       -4.13452097       1.75953437       1.12872492
C       -3.49102391       0.70206522       1.76162427
C       -2.14794712       0.44718299       1.51253369
H        3.71874084       0.49029646       2.78942638
H        3.12465969       2.03039550       3.41423496
H        2.16851735       0.55983590       3.63947341
H        2.28458722       2.47343068      -0.07612585
H        3.70635043       1.47016821       0.28833667
H        3.39072473       2.94043748       1.21959343
H        0.41025995       0.53898298       2.39559038
H        0.44254952       1.69633181      -0.40943383
H        0.00278963      -0.63632925      -0.71036378
H       -1.52108604       2.99412915      -0.63073557
H       -3.90228974       3.41087057      -0.22735900
H       -5.18249895       1.95028135       1.32080359
H       -4.03756944       0.06342030       2.44924834
H       -1.66522915      -0.37774440       2.03318440
C        2.42744107      -1.22243143      -1.35626235
C        1.16931639      -1.85294693      -1.90969929
N       -0.12344761      -1.44665356      -1.23771380
C       -0.62772789      -2.50997126      -0.29705794
C        0.35067772      -2.92302872       0.77981877
C       -1.19682126      -1.12659846      -2.24490221
C       -0.90263427       0.07661008      -3.11536804
H        3.28085769      -1.64150763      -1.89377268
H        2.56189863      -1.42730270      -0.29571692
H        2.42529980      -0.14605961      -1.51687183
H        1.19687307      -2.93748960      -1.83900044
H        1.05762557      -1.61240815      -2.96075103
H       -0.87594476      -3.34614506      -0.94767602
H       -1.55367580      -2.12689376       0.12691298
H        0.62828898      -2.08491463       1.41523298
H        1.25395678      -3.38081153       0.37806866
H       -0.13830090      -3.67205209       1.40329660
H       -1.29159121      -2.03564033      -2.83304108
H       -2.11565002      -0.98162983      -1.67998360
H       -0.84255975       0.99193423      -2.52860528
H        0.00410136      -0.03097940      -3.71161040
H       -1.73266066       0.18544178      -3.81374443
47
Properties=species:S:1:pos:R:3 charge=1 spin=1 pbc="F F F"
C        2.81973709       1.08965336       2.94615212
N        2.13903714       1.33348725       1.68909435
C        2.91381338       2.08742709       0.72404856
C        0.86570894       0.95790973       1.50606375
C        0.05358634       1.13555839       0.43655203
C       -1.41294831       1.24660022       0.63147520
C       -2.07397892       2.31932593       0.01591413
C       -3.41623093       2.57025359       0.25817869
C       -4.13382385       1.75947333       1.12844042
C       -3.49044513       0.70234604       1.76204626
C       -2.14731513       0.44734393       1.51337537
H        3.71876852       0.48962897       2.78979039
H        3.12688593       2.03068543       3.41434774
H        2.16909707       0.56140361       3.64064858
H        2.28419491       2.47545782      -0.07442368
H        3.70430181       1.46848562       0.28619942
H        3.39397874       2.93860630       1.21944679
H        0.41084760       0.53958081       2.39672671
H        0.44361700       1.69520785      -0.40894257
H        0.01444985      -0.63942418      -0.70805783
H       -1.52005520       2.99294672      -0.63132697
H       -3.90124251       3.41010571      -0.22842513
H       -5.18182937       1.95035579       1.32023169
H       -4.03710787       0.06408963       2.44993639
H       -1.66470693      -0.37724278       2.03465833
C        2.42578328      -1.22864396      -1.36861565
C        1.16455170      -1.86071132      -1.91312312
N       -0.12326090      -1.44665056      -1.23649267
C       -0.63030512      -2.50761167      -0.29478008
C        0.34892256      -2.92352778       0.78027575
C       -1.19904744      -1.11653968      -2.23724821
C       -0.89737669       0.07938711      -3.11466452
H        3.27688516      -1.65144873      -1.90673715
H        2.56386197      -1.42797501      -0.30750497
H        2.42416946      -0.15319772      -1.53509861
H        1.19102062      -2.94463549      -1.83563605
H        1.04795079      -1.62673840      -2.96496519
H       -0.88303714      -3.34295964      -0.94460293
H       -1.55383022      -2.12078272       0.13087893
H        0.62986144      -2.08615659       1.41519234
H        1.25036644      -3.38351916       0.37696284
H       -0.14071477      -3.67132789       1.40467749
H       -1.30932941      -2.02590686      -2.82099223
H       -2.11120814      -0.95837392      -1.66622996
H       -0.82152705       0.99570100      -2.53248435
H        0.00266867      -0.04126317      -3.71740965
H       -1.73116891       0.19575027      -3.80691921
47
Properties=species:S:1:pos:R:3 charge=1 spin=1 pbc="F F F"
C        2.82058998       1.09016121       2.94677811
N        2.13940178       1.33445761       1.69008741
C        2.91412799       2.08720163       0.72410175
C        0.86635464       0.95807297       1.50702624
C        0.05443976       1.13478511       0.43717095
C       -1.41213429       1.24611558       0.63187346
C       -2.07303344       2.31854796       0.01566385
C       -3.41532464       2.56969832       0.25761461
C       -4.13312674       1.75941230       1.12815593
C       -3.48986635       0.70262687       1.76246825
C       -2.14668315       0.44750488       1.51421705
H        3.71879621       0.48896148       2.79015441
H        3.12911216       2.03097536       3.41446053
H        2.16967680       0.56297131       3.64182375
H        2.28380260       2.47748497      -0.07272152
H        3.70225320       1.46680303       0.28406216
H        3.39723274       2.93677513       1.21930016
H        0.41143524       0.54017863       2.39786304
H        0.44468449       1.69408390      -0.40845131
H        0.02611008      -0.64251910      -0.70575189
H       -1.51902437       2.99176429      -0.63191836
H       -3.90019527       3.40934085      -0.22949125
H       -5.18115978       1.95043024       1.31965980
H       -4.03664631       0.06475896       2.45062444
H       -1.66418472      -0.37674116       2.03613227
C        2.42412548      -1.23485648      -1.38096894
C        1.15978700      -1.86847570      -1.91654696
N       -0.12307420      -1.44664756      -1.23527155
C       -0.63288234      -2.50525209      -0.29250223
C        0.34716739      -2.92402685       0.78073273
C       -1.20127361      -1.10648090      -2.22959422
C       -0.89211910       0.08216414      -3.11396099
H        3.27291262      -1.66138982      -1.91970161
H        2.56582530      -1.42864732      -0.31929301
H        2.42303912      -0.16033584      -1.55332539
H        1.18516817      -2.95178138      -1.83227167
H        1.03827600      -1.64106865      -2.96917935
H       -0.89012952      -3.33977423      -0.94152985
H       -1.55398465      -2.11467167       0.13484488
H        0.63143390      -2.08739854       1.41515171
H        1.24677610      -3.38622679       0.37585702
H       -0.14312865      -3.67060368       1.40605839
H       -1.32706762      -2.01617338      -2.80894337
H       -2.10676625      -0.93511801      -1.65247631
H       -0.80049434       0.99946776      -2.53636343
H        0.00123598      -0.05154694      -3.72320889
H       -1.72967716       0.20605876      -3.80009398
47
Properties=species:S:1:pos:R:3 charge=1 spin=1 pbc="F F F"
C        2.82144287       1.09066907       2.94740409
N        2.13976641       1.33542796       1.69108046
C        2.91444260       2.08697616       0.72415494
C        0.86700034       0.95823620       1.50798874
C        0.05529318       1.13401184       0.43778987
C       -1.41132027       1.24563094       0.63227173
C       -2.07208796       2.31777000       0.01541357
C       -3.41441836       2.56914306       0.25705052
C       -4.13242962       1.75935127       1.12787144
C       -3.48928757       0.70290769       1.76289024
C       -2.14605116       0.44766582       1.51505873
H        3.71882389       0.48829399       2.79051842
H        3.13133840       2.03126529       3.41457331
H        2.17025652       0.56453902       3.64299892
H        2.28341029       2.47951211      -0.07101935
H        3.70020458       1.46512044       0.28192491
H        3.40048675       2.93494395       1.21915352
H        0.41202289       0.54077646       2.39899937
H        0.44575197       1.69295994      -0.40796005
H        0.03777030      -0.64561403      -0.70344594
H       -1.51799353       2.99058186      -0.63250976
H       -3.89914804       3.40857599      -0.23055738
H       -5.18049020       1.95050468       1.31908790
H       -4.03618475       0.06542829       2.45131249
H       -1.66366250      -0.37623954       2.03760620
C        2.42246769      -1.24106901      -1.39332224
C        1.15502231      -1.87624009      -1.91997080
N       -0.12288749      -1.44664456      -1.23405042
C       -0.63545956      -2.50289250      -0.29022437
C        0.34541223      -2.92452591       0.78118971
C       -1.20349978      -1.09642212      -2.22194023
C       -0.88686151       0.08494117      -3.11325747
H        3.26894008      -1.67133092      -1.93266608
H        2.56778863      -1.42931963      -0.33108106
H        2.42190878      -0.16747395      -1.57155217
H        1.17931572      -2.95892727      -1.82890728
H        1.02860121      -1.65539890      -2.97339351
H       -0.89722190      -3.33658882      -0.93845677
H       -1.55413908      -2.10856062       0.13881083
H        0.63300636      -2.08864050       1.41511107
H        1.24318576      -3.38893442       0.37475120
H       -0.14554252      -3.66987948       1.40743928
H       -1.34480583      -2.00643991      -2.79689452
H       -2.10232437      -0.91186210      -1.63872267
H       -0.77946163       1.00323452      -2.54024250
H       -0.00019671      -0.06183071      -3.72900814
H       -1.72818541       0.21636725      -3.79326876
47
Properties=species:S:1:pos:R:3 charge=1 spin=1 pbc="F F F"
C        2.82229576       1.09117693       2.94803007
N        2.14013104       1.33639831       1.69207351
C        2.91475721       2.08675069       0.72420813
C        0.86764604       0.95839943       1.50895124
C        0.05614660       1.13323857       0.43840879
C       -1.41050625       1.24514630       0.63267000
C       -2.07114248       2.31699204       0.01516329
C       -3.41351208       2.56858780       0.25648643
C       -4.13173250       1.75929024       1.12758695
C       -3.48870879       0.70318851       1.76331223
C       -2.14541917       0.44782676       1.51590041
H        3.71885157       0.48762650       2.79088243
H        3.13356464       2.03155522       3.41468609
H        2.17083624       0.56610673       3.64417409
H        2.28301798       2.48153925      -0.06931718
H        3.69815596       1.46343785       0.27978766
H        3.40374076       2.93311277       1.21900688
H        0.41261054       0.54137429       2.40013570
H        0.44681945       1.69183598      -0.40746879
H        0.04943052      -0.64870896      -0.70113999
H       -1.51696269       2.98939943      -0.63310116
H       -3.89810081       3.40781113      -0.23162351
H       -5.17982062       1.95057912       1.31851600
H       -4.03572319       0.06609762       2.45200054
H       -1.66314028      -0.37573792       2.03908013
C        2.42080990      -1.24728154      -1.40567554
C        1.15025762      -1.88400448      -1.92339464
N       -0.12270078      -1.44664156      -1.23282929
C       -0.63803678      -2.50053291      -0.28794651
C        0.34365707      -2.92502497       0.78164669
C       -1.20572595      -1.08636334      -2.21428624
C       -0.88160392       0.08771820      -3.11255395
H        3.26496754      -1.68127202      -1.94563055
H        2.56975196      -1.42999194      -0.34286911
H        2.42077844      -0.17461206      -1.58977895
H        1.17346327      -2.96607316      -1.82554289
H        1.01892642      -1.66972915      -2.97760767
H       -0.90431428      -3.33340341      -0.93538369
H       -1.55429351      -2.10244957       0.14277678
H        0.63457882      -2.08988246       1.41507043
H        1.23959542      -3.39164205       0.37364538
H       -0.14795639      -3.66915528       1.40882017
H       -1.36254404      -1.99670644      -2.78484567
H       -2.09788249      -0.88860619      -1.62496903
H       -0.75842892       1.00700128      -2.54412157
H       -0.00162940      -0.07211448      -3.73480739
H       -1.72669366       0.22667574      -3.78644354
47
Properties=species:S:1:pos:R:3 charge=1 spin=1 pbc="F F F"
C        2.82314865       1.09168478       2.94865606
N        2.14049568       1.33736867       1.69306657
C        2.91507182       2.08652523       0.72426132
C        0.86829174       0.95856267       1.50991373
C        0.05700002       1.13246529       0.43902771
C       -1.40969223       1.24466166       0.63306826
C       -2.07019700       2.31621407       0.01491301
C       -3.41260579       2.56803253       0.25592235
C       -4.13103539       1.75922921       1.12730246
C       -3.48813001       0.70346934       1.76373422
C       -2.14478719       0.44798771       1.51674209
H        3.71887926       0.48695901       2.79124645
H        3.13579087       2.03184515       3.41479888
H        2.17141597       0.56767443       3.64534926
H        2.28262567       2.48356640      -0.06761502
H        3.69610735       1.46175526       0.27765040
H        3.40699476       2.93128160       1.21886025
H        0.41319818       0.54197211       2.40127203
H        0.44788694       1.69071203      -0.40697753
H        0.06109075      -0.65180388      -0.69883405
H       -1.51593186       2.98821700      -0.63369255
H       -3.89705357       3.40704627      -0.23268963
H       -5.17915103       1.95065357       1.31794411
H       -4.03526163       0.06676695       2.45268859
H       -1.66261807      -0.37523630       2.04055407
C        2.41915210      -1.25349406      -1.41802883
C        1.14549292      -1.89176886      -1.92681848
N       -0.12251408      -1.44663856      -1.23160817
C       -0.64061400      -2.49817333      -0.28566866
C        0.34190190      -2.92552404       0.78210367
C       -1.20795212      -1.07630456      -2.20663225
C       -0.87634633       0.09049523      -3.11185042
H        3.26099500      -1.69121311      -1.95859501
H        2.57171529      -1.43066425      -0.35465715
H        2.41964810      -0.18175018      -1.60800573
H        1.16761082      -2.97321905      -1.82217851
H        1.00925163      -1.68405940      -2.98182183
H       -0.91140666      -3.33021800      -0.93231061
H       -1.55444794      -2.09633852       0.14674273
H        0.63615128      -2.09112441       1.41502980
H        1.23600508      -3.39434968       0.37253956
H       -0.15037027      -3.66843107       1.41020107
H       -1.38028225      -1.98697296      -2.77279681
H       -2.09344060      -0.86535028      -1.61121538
H       -0.73739621       1.01076804      -2.54800065
H       -0.00306209      -0.08239825      -3.74060663
H       -1.72520191       0.23698423      -3.77961831
47
Properties=species:S:1:pos:R:3 charge=1 spin=1 pbc="F F F"
C        2.82400154       1.09219264       2.94928204
N        2.14086031       1.33833902       1.69405962
C        2.91538642       2.08629976       0.72431451
C        0.86893744       0.95872590       1.51087623
C        0.05785344       1.13169202       0.43964663
C       -1.40887822       1.24417702       0.63346653
C       -2.06925152       2.31543611       0.01466273
C       -3.41169951       2.56747727       0.25535826
C       -4.13033827       1.75916817       1.12701796
C       -3.48755123       0.70375016       1.76415621
C       -2.14415520       0.44814865       1.51758377
H        3.71890694       0.48629152       2.79161046
H        3.13801711       2.03213508       3.41491166
H        2.17199569       0.56924214       3.64652443
H        2.28223336       2.48559354      -0.06591285
H        3.69405873       1.46007267       0.27551315
H        3.41024877       2.92945042       1.21871361
H        0.41378583       0.54256994       2.40240836
H        0.44895442       1.68958807      -0.40648627
H        0.07275097      -0.65489881      -0.69652810
H       -1.51490102       2.98703457      -0.63428395
H       -3.89600634       3.40628141      -0.23375576
H       -5.17848145       1.95072801       1.31737221
H       -4.03480006       0.06743628       2.45337664
H       -1.66209585      -0.37473468       2.04202800
C        2.41749431      -1.25970659      -1.43038213
C        1.14072823      -1.89953325      -1.93024231
N       -0.12232737      -1.44663556      -1.23038704
C       -0.64319123      -2.49581374      -0.28339080
C        0.34014674      -2.92602310       0.78256065
C       -1.21017830      -1.06624578      -2.19897825
C       -0.87108875       0.09327226      -3.11114690
H        3.25702247      -1.70115421      -1.97155948
H        2.57367863      -1.43133656      -0.36644520
H        2.41851776      -0.18888829      -1.62623251
H        1.16175837      -2.98036494      -1.81881412
H        0.99957685      -1.69838965      -2.98603599
H       -0.91849904      -3.32703258      -0.92923752
H       -1.55460236      -2.09022748       0.15070868
H        0.63772374      -2.09236637       1.41498916
H        1.23241474      -3.39705731       0.37143374
H       -0.15278414      -3.66770687       1.41158196
H       -1.39802045      -1.97723949      -2.76074796
H       -2.08899872      -0.84209437      -1.59746174
H       -0.71636351       1.01453481      -2.55187972
H       -0.00449478      -0.09268202      -3.74640588
H       -1.72371016       0.24729272      -3.77279309
47
Properties=species:S:1:pos:R:3 charge=1 spin=1 pbc="F F F"
C        2.82485443       1.09270049       2.94990803
N        2.14122494       1.33930938       1.69505268
C        2.91570103       2.08607430       0.72436771
C        0.86958314       0.95888913       1.51183872
C        0.05870687       1.13091875       0.44026554
C       -1.40806420       1.24369238       0.63386480
C       -2.06830604       2.31465814       0.01441245
C       -3.41079323       2.56692201       0.25479417
C       -4.12964116       1.75910714       1.12673347
C       -3.48697245       0.70403098       1.76457820
C       -2.14352321       0.44830960       1.51842545
H        3.71893462       0.48562403       2.79197448
H        3.14024335       2.03242501       3.41502444
H        2.17257542       0.57080985       3.64769960
H        2.28184105       2.48762068      -0.06421068
H        3.69201012       1.45839009       0.27337590
H        3.41350277       2.92761924       1.21856698
H        0.41437348       0.54316777       2.40354469
H        0.45002190       1.68846412      -0.40599501
H        0.08441120      -0.65799373      -0.69422215
H       -1.51387019       2.98585214      -0.63487535
H       -3.89495910       3.40551655      -0.23482188
H       -5.17781186       1.95080245       1.31680031
H       -4.03433850       0.06810561       2.45406470
H       -1.66157364      -0.37423306       2.04350194
C        2.41583651      -1.26591912      -1.44273543
C        1.13596354      -1.90729764      -1.93366615
N       -0.12214067      -1.44663256      -1.22916592
C       -0.64576845      -2.49345415      -0.28111295
C        0.33839158      -2.92652217       0.78301763
C       -1.21240447      -1.05618700      -2.19132426
C       -0.86583116       0.09604929      -3.11044337
H        3.25304993      -1.71109531      -1.98452394
H        2.57564196      -1.43200887      -0.37823324
H        2.41738741      -0.19602641      -1.64445929
H        1.15590593      -2.98751083      -1.81544974
H        0.98990206      -1.71271990      -2.99025015
H       -0.92559142      -3.32384717      -0.92616444
H       -1.55475679      -2.08411643       0.15467463
H        0.63929620      -2.09360833       1.41494853
H        1.22882441      -3.39976495       0.37032792
H       -0.15519801      -3.66698266       1.41296286
H       -1.41575866      -1.96750601      -2.74869911
H       -2.08455683      -0.81883846      -1.58370809
H       -0.69533080       1.01830157      -2.55575879
H       -0.00592747      -0.10296579      -3.75220513
H       -1.72221841       0.25760120      -3.76596787
47
Properties=species:S:1:pos:R:3 charge=1 spin=1 pbc="F F F"
C        2.82570733       1.09320835       2.95053401
N        2.14158957       1.34027973       1.69604573
C        2.91601564       2.08584883       0.72442090
C        0.87022884       0.95905236       1.51280122
C        0.05956029       1.13014548       0.44088446
C       -1.40725018       1.24320774       0.63426306
C       -2.06736056       2.31388018       0.01416217
C       -3.40988694       2.56636674       0.25423009
C       -4.12894404       1.75904611       1.12644898
C       -3.48639367       0.70431180       1.76500019
C       -2.14289123       0.44847054       1.51926714
H        3.71896231       0.48495654       2.79233849
H        3.14246958       2.03271494       3.41513723
H        2.17315514       0.57237755       3.64887477
H        2.28144874       2.48964782      -0.06250851
H        3.68996150       1.45670750       0.27123864
H        3.41675678       2.92578807       1.21842034
H        0.41496112       0.54376559       2.40468102
H        0.45108939       1.68734016      -0.40550375
H        0.09607142      -0.66108866      -0.69191621
H       -1.51283935       2.98466971      -0.63546675
H       -3.89391187       3.40475169      -0.23588801
H       -5.17714228       1.95087689       1.31622841
H       -4.03387694       0.06877494       2.45475275
H       -1.66105142      -0.37373144       2.04497587
C        2.41417872      -1.27213165      -1.45508872
C        1.13119884      -1.91506202      -1.93708999
N       -0.12195396      -1.44662955      -1.22794479
C       -0.64834567      -2.49109456      -0.27883509
C        0.33663642      -2.92702123       0.78347461
C       -1.21463064      -1.04612821      -2.18367027
C       -0.86057357       0.09882632      -3.10973985
H        3.24907739      -1.72103641      -1.99748841
H        2.57760529      -1.43268118      -0.39002129
H        2.41625707      -0.20316452      -1.66268607
H        1.15005348      -2.99465672      -1.81208535
H        0.98022727      -1.72705015      -2.99446431
H       -0.93268380      -3.32066176      -0.92309136
H       -1.55491122      -2.07800538       0.15864057
H        0.64086866      -2.09485029       1.41490789
H        1.22523407      -3.40247258       0.36922210
H       -0.15761189      -3.66625846       1.41434375
H       -1.43349687      -1.95777254      -2.73665026
H       -2.08011495      -0.79558256      -1.56995445
H       -0.67429809       1.02206833      -2.55963786
H       -0.00736017      -0.11324956      -3.75800438
H       -1.72072666       0.26790969      -3.75914265
47
Properties=species:S:1:pos:R:3 charge=1 spin=1 pbc="F F F"
C        2.82656022       1.09371621       2.95116000
N        2.14195421       1.34125009       1.69703879
C        2.91633025       2.08562337       0.72447409
C        0.87087454       0.95921560       1.51376372
C        0.06041371       1.12937220       0.44150338
C       -1.40643616       1.24272310       0.63466133
C       -2.06641508       2.31310221       0.01391189
C       -3.40898066       2.56581148       0.25366600
C       -4.12824692       1.75898508       1.12616449
C       -3.48581489       0.70459263       1.76542218
C       -2.14225924       0.44863148       1.52010882
H        3.71898999       0.48428906       2.79270251
H        3.14469582       2.03300487       3.41525001
H        2.17373486       0.57394526       3.65004994
H        2.28105643       2.49167497      -0.06080635
H        3.68791289       1.45502491       0.26910139
H        3.42001078       2.92395689       1.21827370
H        0.41554877       0.54436342       2.40581735
H        0.45215687       1.68621621      -0.40501249
H        0.10773165      -0.66418359      -0.68961026
H       -1.51180852       2.98348728      -0.63605814
H       -3.89286463       3.40398684      -0.23695414
H       -5.17647270       1.95095134       1.31565652
H       -4.03341538       0.06944427       2.45544080
H       -1.66052920      -0.37322982       2.04644980
C        2.41252092      -1.27834417      -1.46744202
C        1.12643415      -1.92282641      -1.94051383
N       -0.12176726      -1.44662655      -1.22672366
C       -0.65092289      -2.48873498      -0.27655724
C        0.33488125      -2.92752030       0.78393159
C       -1.21685681      -1.03606943      -2.17601628
C       -0.85531598       0.10160335      -3.10903632
H        3.24510485      -1.73097750      -2.01045287
H        2.57956862      -1.43335349      -0.40180934
H        2.41512673      -0.21030264      -1.68091285
H        1.14420103      -3.00180261      -1.80872097
H        0.97055248      -1.74138040      -2.99867847
H       -0.93977618      -3.31747635      -0.92001828
H       -1.55506565      -2.07189433       0.16260652
H        0.64244112      -2.09609224       1.41486726
H        1.22164373      -3.40518021       0.36811628
H       -0.16002576      -3.66553426       1.41572465
H       -1.45123508      -1.94803906      -2.72460140
H       -2.07567306      -0.77232665      -1.55620080
H       -0.65326538       1.02583509      -2.56351694
H       -0.00879286      -0.12353333      -3.76380362
H       -1.71923491       0.27821818      -3.75231742
47
Properties=species:S:1:pos:R:3 charge=1 spin=1 pbc="F F F"
C        2.82741311       1.09422406       2.95178598
N        2.14231884       1.34222044       1.69803184
C        2.91664485       2.08539790       0.72452728
C        0.87152024       0.95937883       1.51472621
C        0.06126713       1.12859893       0.44212230
C       -1.40562214       1.24223846       0.63505960
C       -2.06546960       2.31232425       0.01366162
C       -3.40807438       2.56525622       0.25310191
C       -4.12754981       1.75892405       1.12588000
C       -3.48523611       0.70487345       1.76584417
C       -2.14162725       0.44879243       1.52095050
H        3.71901768       0.48362157       2.79306652
H        3.14692206       2.03329480       3.41536279
H        2.17431459       0.57551297       3.65122511
H        2.28066412       2.49370211      -0.05910418
H        3.68586427       1.45334232       0.26696414
H        3.42326479       2.92212571       1.21812707
H        0.41613641       0.54496125       2.40695368
H        0.45322435       1.68509225      -0.40452123
H        0.11939187      -0.66727851      -0.68730432
H       -1.51077768       2.98230485      -0.63664954
H       -3.89181740       3.40322198      -0.23802026
H       -5.17580311       1.95102578       1.31508462
H       -4.03295382       0.07011360       2.45612885
H       -1.66000699      -0.37272820       2.04792374
C        2.41086313      -1.28455670      -1.47979532
C        1.12166946      -1.93059080      -1.94393767
N       -0.12158055      -1.44662355      -1.22550254
C       -0.65350011      -2.48637539      -0.27427938
C        0.33312609      -2.92801936       0.78438857
C       -1.21908299      -1.02601065      -2.16836228
C       -0.85005839       0.10438039      -3.10833280
H        3.24113231      -1.74091860      -2.02341734
H        2.58153196      -1.43402580      -0.41359738
H        2.41399639      -0.21744075      -1.69913963
H        1.13834858      -3.00894850      -1.80535658
H        0.96087769      -1.75571065      -3.00289263
H       -0.94686857      -3.31429094      -0.91694519
H       -1.55522007      -2.06578329       0.16657247
H        0.64401358      -2.09733420       1.41482662
H        1.21805339      -3.40788784       0.36701046
H       -0.16243963      -3.66481005       1.41710554
H       -1.46897329      -1.93830559      -2.71255255
H       -2.07123118      -0.74907074      -1.54244716
H       -0.63223267       1.02960185      -2.56739601
H       -0.01022555      -0.13381709      -3.76960287
H       -1.71774315       0.28852667      -3.74549220
47
Properties=species:S:1:pos:R:3 charge=1 spin=1 pbc="F F F"
C        2.82826600       1.09473192       2.95241197
N        2.14268347       1.34319080       1.69902490
C        2.91695946       2.08517244       0.72458047
C        0.87216594       0.95954206       1.51568871
C        0.06212055       1.12782566       0.44274122
C       -1.40480813       1.24175382       0.63545786
C       -2.06452412       2.31154629       0.01341134
C       -3.40716809       2.56470095       0.25253782
C       -4.12685269       1.75886301       1.12559550
C       -3.48465733       0.70515427       1.76626616
C       -2.14099527       0.44895337       1.52179218
H        3.71904536       0.48295408       2.79343054
H        3.14914830       2.03358473       3.41547558
H        2.17489431       0.57708067       3.65240028
H        2.28027181       2.49572925      -0.05740201
H        3.68381566       1.45165973       0.26482688
H        3.42651879       2.92029454       1.21798043
H        0.41672406       0.54555908       2.40809001
H        0.45429183       1.68396830      -0.40402997
H        0.13105210      -0.67037344      -0.68499837
H       -1.50974685       2.98112242      -0.63724094
H       -3.89077017       3.40245712      -0.23908639
H       -5.17513353       1.95110022       1.31451272
H       -4.03249226       0.07078294       2.45681690
H       -1.65948477      -0.37222658       2.04939767
C        2.40920533      -1.29076923      -1.49214861
C        1.11690476      -1.93835518      -1.94736150
N       -0.12139384      -1.44662055      -1.22428141
C       -0.65607733      -2.48401580      -0.27200152
C        0.33137093      -2.92851842       0.78484555
C       -1.22130916      -1.01595187      -2.16070829
C       -0.84480080       0.10715742      -3.10762927
H        3.23715978      -1.75085970      -2.03638180
H        2.58349529      -1.43469811      -0.42538543
H        2.41286605      -0.22457887      -1.71736641
H        1.13249613      -3.01609439      -1.80199220
H        0.95120291      -1.77004091      -3.00710679
H       -0.95396095      -3.31110552      -0.91387211
H       -1.55537450      -2.05967224       0.17053842
H        0.64558604      -2.09857616       1.41478599
H        1.21446305      -3.41059547       0.36590464
H       -0.16485351      -3.66408585       1.41848644
H       -1.48671150      -1.92857212      -2.70050370
H       -2.06678930      -0.72581483      -1.52869351
H       -0.61119996       1.03336861      -2.57127508
H       -0.01165824      -0.14410086      -3.77540212
H       -1.71625140       0.29883516      -3.73866698
47
Properties=species:S:1:pos:R:3 charge=1 spin=1 pbc="F F F"
C        2.82911889       1.09523977       2.95303795
N        2.14304811       1.34416115       1.70001795
C        2.91727407       2.08494697       0.72463366
C        0.87281164       0.95970529       1.51665120
C        0.06297397       1.12705238       0.44336014
C       -1.40399411       1.24126918       0.63585613
C       -2.06357864       2.31076832       0.01316106
C       -3.40626181       2.56414569       0.25197374
C       -4.12615558       1.75880198       1.12531101
C       -3.48407855       0.70543509       1.76668815
C       -2.14036328       0.44911432       1.52263386
H        3.71907304       0.48228659       2.79379455
H        3.15137453       2.03387466       3.41558836
H        2.17547404       0.57864838       3.65357545
H        2.27987950       2.49775640      -0.05569985
H        3.68176704       1.44997714       0.26268963
H        3.42977280       2.91846336       1.21783380
H        0.41731171       0.54615690       2.40922634
H        0.45535932       1.68284434      -0.40353871
H        0.14271232      -0.67346837      -0.68269242
H       -1.50871601       2.97993999      -0.63783234
H       -3.88972293       3.40169226      -0.24015252
H       -5.17446394       1.95117466       1.31394082
H       -4.03203069       0.07145227       2.45750495
H       -1.65896255      -0.37172496       2.05087161
C        2.40754754      -1.29698176      -1.50450191
C        1.11214007      -1.94611957      -1.95078534
N       -0.12120714      -1.44661755      -1.22306029
C       -0.65865456      -2.48165621      -0.26972367
C        0.32961577      -2.92901749       0.78530253
C       -1.22353533      -1.00589309      -2.15305430
C       -0.83954322       0.10993445      -3.10692575
H        3.23318724      -1.76080079      -2.04934627
H        2.58545862      -1.43537042      -0.43717347
H        2.41173571      -0.23171698      -1.73559318
H        1.12664368      -3.02324027      -1.79862781
H        0.94152812      -1.78437116      -3.01132095
H       -0.96105333      -3.30792011      -0.91079903
H       -1.55552893      -2.05356119       0.17450437
H        0.64715850      -2.09981812       1.41474535
H        1.21087271      -3.41330310       0.36479882
H       -0.16726738      -3.66336164       1.41986733
H       -1.50444970      -1.91883864      -2.68845485
H       -2.06234741      -0.70255892      -1.51493987
H       -0.59016726       1.03713538      -2.57515415
H       -0.01309093      -0.15438463      -3.78120136
H       -1.71475965       0.30914365      -3.73184176
47
Properties=species:S:1:pos:R:3 charge=1 spin=1 pbc="F F F"
C        2.82997178       1.09574763       2.95366394
N        2.14341274       1.34513151       1.70101101
C        2.91758868       2.08472151       0.72468686
C        0.87345734       0.95986853       1.51761370
C        0.06382739       1.12627911       0.44397906
C       -1.40318009       1.24078454       0.63625440
C       -2.06263316       2.30999036       0.01291078
C       -3.40535553       2.56359042       0.25140965
C       -4.12545846       1.75874095       1.12502652
C       -3.48349977       0.70571592       1.76711014
C       -2.13973130       0.44927526       1.52347554
H        3.71910073       0.48161910       2.79415857
H        3.15360077       2.03416459       3.41570114
H        2.17605376       0.58021608       3.65475062
H        2.27948719       2.49978354      -0.05399768
H        3.67971843       1.44829455       0.26055238
H        3.43302680       2.91663218       1.21768716
H        0.41789935       0.54675473       2.41036267
H        0.45642680       1.68172039      -0.40304745
H        0.15437254      -0.67656329      -0.68038648
H       -1.50768518       2.97875756      -0.63842373
H       -3.88867570       3.40092740      -0.24121864
H       -5.17379436       1.95124911       1.31336893
H       -4.03156913       0.07212160       2.45819300
H       -1.65844034      -0.37122334       2.05234554
C        2.40588975      -1.30319428      -1.51685521
C        1.10737538      -1.95388396      -1.95420918
N       -0.12102043      -1.44661455      -1.22183916
C       -0.66123178      -2.47929663      -0.26744581
C        0.32786060      -2.92951655       0.78575951
C       -1.22576150      -0.99583431      -2.14540031
C       -0.83428563       0.11271148      -3.10622222
H        3.22921470      -1.77074189      -2.06231073
H        2.58742195      -1.43604273      -0.44896152
H        2.41060537      -0.23885510      -1.75381996
H        1.12079124      -3.03038616      -1.79526343
H        0.93185333      -1.79870141      -3.01553511
H       -0.96814571      -3.30473470      -0.90772595
H       -1.55568336      -2.04745014       0.17847032
H        0.64873095      -2.10106007       1.41470472
H        1.20728237      -3.41601073       0.36369300
H       -0.16968125      -3.66263744       1.42124822
H       -1.52218791      -1.90910517      -2.67640599
H       -2.05790553      -0.67930301      -1.50118623
H       -0.56913455       1.04090214      -2.57903323
H       -0.01452362      -0.16466840      -3.78700061
H       -1.71326790       0.31945214      -3.72501653
47
Properties=species:S:1:pos:R:3 charge=1 spin=1 pbc="F F F"
C        2.82911889       1.09523977       2.95303795
N        2.14304811       1.34416115       1.70001795
C        2.91727407       2.08494697       0.72463366
C        0.87281164       0.95970529       1.51665120
C        0.06297397       1.12705238       0.44336014
C       -1.40399411       1.24126918       0.63585613
C       -2.06357864       2.31076832       0.01316106
C       -3.40626181       2.56414569       0.25197374
C       -4.12615558       1.75880198       1.12531101
C       -3.48407855       0.70543509       1.76668815
C       -2.14036328       0.44911432       1.52263386
H        3.71907304       0.48228659       2.79379455
H        3.15137453       2.03387466       3.41558836
H        2.17547404       0.57864838       3.65357545
H        2.27987950       2.49775640      -0.05569985
H        3.68176704       1.44997714       0.26268963
H        3.42977280       2.91846336       1.21783380
H        0.41731171       0.54615690       2.40922634
H        0.45535932       1.68284434      -0.40353871
H        0.14271232      -0.67346837      -0.68269242
H       -1.50871601       2.97993999      -0.63783234
H       -3.88972293       3.40169226      -0.24015252
H       -5.17446394       1.95117466       1.31394082
H       -4.03203069       0.07145227       2.45750495
H       -1.65896255      -0.37172496       2.05087161
C        2.40754754      -1.29698176      -1.50450191
C        1.11214007      -1.94611957      -1.95078534
N       -0.12120714      -1.44661755      -1.22306029
C       -0.65865456      -2.48165621      -0.26972367
C        0.32961577      -2.92901749       0.78530253
C       -1.22353533      -1.00589309      -2.15305430
C       -0.83954322       0.10993445      -3.10692575
H        3.23318724      -1.76080079      -2.04934627
H        2.58545862      -1.43537042      -0.43717347
H        2.41173571      -0.23171698      -1.73559318
H        1.12664368      -3.02324027      -1.79862781
H        0.94152812      -1.78437116      -3.01132095
H       -0.96105333      -3.30792011      -0.91079903
H       -1.55552893      -2.05356119       0.17450437
H        0.64715850      -2.09981812       1.41474535
H        1.21087271      -3.41330310       0.36479882
H       -0.16726738      -3.66336164       1.41986733
H       -1.50444970      -1.91883864      -2.68845485
H       -2.06234741      -0.70255892      -1.51493987
H       -0.59016726       1.03713538      -2.57515415
H       -0.01309093      -0.15438463      -3.78120136
H       -1.71475965       0.30914365      -3.73184176
47
Properties=species:S:1:pos:R:3 charge=1 spin=1 pbc="F F F"
C        2.82826600       1.09473192       2.95241197
N        2.14268347       1.34319080       1.69902490
C        2.91695946       2.08517244       0.72458047
C        0.87216594       0.95954206       1.51568871
C        0.06212055       1.12782566       0.44274122
C       -1.40480813       1.24175382       0.63545786
C       -2.06452412       2.31154629       0.01341134
C       -3.40716809       2.56470095       0.25253782
C       -4.12685269       1.75886301       1.12559550
C       -3.48465733       0.70515427       1.76626616
C       -2.14099527       0.44895337       1.52179218
H        3.71904536       0.48295408       2.79343054
H        3.14914830       2.03358473       3.41547558
H        2.17489431       0.57708067       3.65240028
H        2.28027181       2.49572925      -0.05740201
H        3.68381566       1.45165973       0.26482688
H        3.42651879       2.92029454       1.21798043
H        0.41672406       0.54555908       2.40809001
H        0.45429183       1.68396830      -0.40402997
H        0.13105210      -0.67037344      -0.68499837
H       -1.50974685       2.98112242      -0.63724094
H       -3.89077017       3.40245712      -0.23908639
H       -5.17513353       1.95110022       1.31451272
H       -4.03249226       0.07078294       2.45681690
H       -1.65948477      -0.37222658       2.04939767
C        2.40920533      -1.29076923      -1.49214861
C        1.11690476      -1.93835518      -1.94736150
N       -0.12139384      -1.44662055      -1.22428141
C       -0.65607733      -2.48401580      -0.27200152
C        0.33137093      -2.92851842       0.78484555
C       -1.22130916      -1.01595187      -2.16070829
C       -0.84480080       0.10715742      -3.10762927
H        3.23715978      -1.75085970      -2.03638180
H        2.58349529      -1.43469811      -0.42538543
H        2.41286605      -0.22457887      -1.71736641
H        1.13249613      -3.01609439      -1.80199220
H        0.95120291      -1.77004091      -3.00710679
H       -0.95396095      -3.31110552      -0.91387211
H       -1.55537450      -2.05967224       0.17053842
H        0.64558604      -2.09857616       1.41478599
H        1.21446305      -3.41059547       0.36590464
H       -0.16485351      -3.66408585       1.41848644
H       -1.48671150      -1.92857212      -2.70050370
H       -2.06678930      -0.72581483      -1.52869351
H       -0.61119996       1.03336861      -2.57127508
H       -0.01165824      -0.14410086      -3.77540212
H       -1.71625140       0.29883516      -3.73866698
47
Properties=species:S:1:pos:R:3 charge=1 spin=1 pbc="F F F"
C        2.82741311       1.09422406       2.95178598
N        2.14231884       1.34222044       1.69803184
C        2.91664485       2.08539790       0.72452728
C        0.87152024       0.95937883       1.51472621
C        0.06126713       1.12859893       0.44212230
C       -1.40562214       1.24223846       0.63505960
C       -2.06546960       2.31232425       0.01366162
C       -3.40807438       2.56525622       0.25310191
C       -4.12754981       1.75892405       1.12588000
C       -3.48523611       0.70487345       1.76584417
C       -2.14162725       0.44879243       1.52095050
H        3.71901768       0.48362157       2.79306652
H        3.14692206       2.03329480       3.41536279
H        2.17431459       0.57551297       3.65122511
H        2.28066412       2.49370211      -0.05910418
H        3.68586427       1.45334232       0.26696414
H        3.42326479       2.92212571       1.21812707
H        0.41613641       0.54496125       2.40695368
H        0.45322435       1.68509225      -0.40452123
H        0.11939187      -0.66727851      -0.68730432
H       -1.51077768       2.98230485      -0.63664954
H       -3.89181740       3.40322198      -0.23802026
H       -5.17580311       1.95102578       1.31508462
H       -4.03295382       0.07011360       2.45612885
H       -1.66000699      -0.37272820       2.04792374
C        2.41086313      -1.28455670      -1.47979532
C        1.12166946      -1.93059080      -1.94393767
N       -0.12158055      -1.44662355      -1.22550254
C       -0.65350011      -2.48637539      -0.27427938
C        0.33312609      -2.92801936       0.78438857
C       -1.21908299      -1.02601065      -2.16836228
C       -0.85005839       0.10438039      -3.10833280
H        3.24113231      -1.74091860      -2.02341734
H        2.58153196      -1.43402580      -0.41359738
H        2.41399639      -0.21744075      -1.69913963
H        1.13834858      -3.00894850      -1.80535658
H        0.96087769      -1.75571065      -3.00289263
H       -0.94686857      -3.31429094      -0.91694519
H       -1.55522007      -2.06578329       0.16657247
H        0.64401358      -2.09733420       1.41482662
H        1.21805339      -3.40788784       0.36701046
H       -0.16243963      -3.66481005       1.41710554
H       -1.46897329      -1.93830559      -2.71255255
H       -2.07123118      -0.74907074      -1.54244716
H       -0.63223267       1.02960185      -2.56739601
H       -0.01022555      -0.13381709      -3.76960287
H       -1.71774315       0.28852667      -3.74549220
47
Properties=species:S:1:pos:R:3 charge=1 spin=1 pbc="F F F"
C        2.82656022       1.09371621       2.95116000
N        2.14195421       1.34125009       1.69703879
C        2.91633025       2.08562337       0.72447409
C        0.87087454       0.95921560       1.51376372
C        0.06041371       1.12937220       0.44150338
C       -1.40643616       1.24272310       0.63466133
C       -2.06641508       2.31310221       0.01391189
C       -3.40898066       2.56581148       0.25366600
C       -4.12824692       1.75898508       1.12616449
C       -3.48581489       0.70459263       1.76542218
C       -2.14225924       0.44863148       1.52010882
H        3.71898999       0.48428906       2.79270251
H        3.14469582       2.03300487       3.41525001
H        2.17373486       0.57394526       3.65004994
H        2.28105643       2.49167497      -0.06080635
H        3.68791289       1.45502491       0.26910139
H        3.42001078       2.92395689       1.21827370
H        0.41554877       0.54436342       2.40581735
H        0.45215687       1.68621621      -0.40501249
H        0.10773165      -0.66418359      -0.68961026
H       -1.51180852       2.98348728      -0.63605814
H       -3.89286463       3.40398684      -0.23695414
H       -5.17647270       1.95095134       1.31565652
H       -4.03341538       0.06944427       2.45544080
H       -1.66052920      -0.37322982       2.04644980
C        2.41252092      -1.27834417      -1.46744202
C        1.12643415      -1.92282641      -1.94051383
N       -0.12176726      -1.44662655      -1.22672366
C       -0.65092289      -2.48873498      -0.27655724
C        0.33488125      -2.92752030       0.78393159
C       -1.21685681      -1.03606943      -2.17601628
C       -0.85531598       0.10160335      -3.10903632
H        3.24510485      -1.73097750      -2.01045287
H        2.57956862      -1.43335349      -0.40180934
H        2.41512673      -0.21030264      -1.68091285
H        1.14420103      -3.00180261      -1.80872097
H        0.97055248      -1.74138040      -2.99867847
H       -0.93977618      -3.31747635      -0.92001828
H       -1.55506565      -2.07189433       0.16260652
H        0.64244112      -2.09609224       1.41486726
H        1.22164373      -3.40518021       0.36811628
H       -0.16002576      -3.66553426       1.41572465
H       -1.45123508      -1.94803906      -2.72460140
H       -2.07567306      -0.77232665      -1.55620080
H       -0.65326538       1.02583509      -2.56351694
H       -0.00879286      -0.12353333      -3.76380362
H       -1.71923491       0.27821818      -3.75231742
47
Properties=species:S:1:pos:R:3 charge=1 spin=1 pbc="F F F"
C        2.82570733       1.09320835       2.95053401
N        2.14158957       1.34027973       1.69604573
C        2.91601564       2.08584883       0.72442090
C        0.87022884       0.95905236       1.51280122
C        0.05956029       1.13014548       0.44088446
C       -1.40725018       1.24320774       0.63426306
C       -2.06736056       2.31388018       0.01416217
C       -3.40988694       2.56636674       0.25423009
C       -4.12894404       1.75904611       1.12644898
C       -3.48639367       0.70431180       1.76500019
C       -2.14289123       0.44847054       1.51926714
H        3.71896231       0.48495654       2.79233849
H        3.14246958       2.03271494       3.41513723
H        2.17315514       0.57237755       3.64887477
H        2.28144874       2.48964782      -0.06250851
H        3.68996150       1.45670750       0.27123864
H        3.41675678       2.92578807       1.21842034
H        0.41496112       0.54376559       2.40468102
H        0.45108939       1.68734016      -0.40550375
H        0.09607142      -0.66108866      -0.69191621
H       -1.51283935       2.98466971      -0.63546675
H       -3.89391187       3.40475169      -0.23588801
H       -5.17714228       1.95087689       1.31622841
H       -4.03387694       0.06877494       2.45475275
H       -1.66105142      -0.37373144       2.04497587
C        2.41417872      -1.27213165      -1.45508872
C        1.13119884      -1.91506202      -1.93708999
N       -0.12195396      -1.44662955      -1.22794479
C       -0.64834567      -2.49109456      -0.27883509
C        0.33663642      -2.92702123       0.78347461
C       -1.21463064      -1.04612821      -2.18367027
C       -0.86057357       0.09882632      -3.10973985
H        3.24907739      -1.72103641      -1.99748841
H        2.57760529      -1.43268118      -0.39002129
H        2.41625707      -0.20316452      -1.66268607
H        1.15005348      -2.99465672      -1.81208535
H        0.98022727      -1.72705015      -2.99446431
H       -0.93268380      -3.32066176      -0.92309136
H       -1.55491122      -2.07800538       0.15864057
H        0.64086866      -2.09485029       1.41490789
H        1.22523407      -3.40247258       0.36922210
H       -0.15761189      -3.66625846       1.41434375
H       -1.43349687      -1.95777254      -2.73665026
H       -2.08011495      -0.79558256      -1.56995445
H       -0.67429809       1.02206833      -2.55963786
H       -0.00736017      -0.11324956      -3.75800438
H       -1.72072666       0.26790969      -3.75914265
47
Properties=species:S:1:pos:R:3 charge=1 spin=1 pbc="F F F"
C        2.82485443       1.09270049       2.94990803
N        2.14122494       1.33930938       1.69505268
C        2.91570103       2.08607430       0.72436771
C        0.86958314       0.95888913       1.51183872
C        0.05870687       1.13091875       0.44026554
C       -1.40806420       1.24369238       0.63386480
C       -2.06830604       2.31465814       0.01441245
C       -3.41079323       2.56692201       0.25479417
C       -4.12964116       1.75910714       1.12673347
C       -3.48697245       0.70403098       1.76457820
C       -2.14352321       0.44830960       1.51842545
H        3.71893462       0.48562403       2.79197448
H        3.14024335       2.03242501       3.41502444
H        2.17257542       0.57080985       3.64769960
H        2.28184105       2.48762068      -0.06421068
H        3.69201012       1.45839009       0.27337590
H        3.41350277       2.92761924       1.21856698
H        0.41437348       0.54316777       2.40354469
H        0.45002190       1.68846412      -0.40599501
H        0.08441120      -0.65799373      -0.69422215
H       -1.51387019       2.98585214      -0.63487535
H       -3.89495910       3.40551655      -0.23482188
H       -5.17781186       1.95080245       1.31680031
H       -4.03433850       0.06810561       2.45406470
H       -1.66157364      -0.37423306       2.04350194
C        2.41583651      -1.26591912      -1.44273543
C        1.13596354      -1.90729764      -1.93366615
N       -0.12214067      -1.44663256      -1.22916592
C       -0.64576845      -2.49345415      -0.28111295
C        0.33839158      -2.92652217       0.78301763
C       -1.21240447      -1.05618700      -2.19132426
C       -0.86583116       0.09604929      -3.11044337
H        3.25304993      -1.71109531      -1.98452394
H        2.57564196      -1.43200887      -0.37823324
H        2.41738741      -0.19602641      -1.64445929
H        1.15590593      -2.98751083      -1.81544974
H        0.98990206      -1.71271990      -2.99025015
H       -0.92559142      -3.32384717      -0.92616444
H       -1.55475679      -2.08411643       0.15467463
H        0.63929620      -2.09360833       1.41494853
H        1.22882441      -3.39976495       0.37032792
H       -0.15519801      -3.66698266       1.41296286
H       -1.41575866      -1.96750601      -2.74869911
H       -2.08455683      -0.81883846      -1.58370809
H       -0.69533080       1.01830157      -2.55575879
H       -0.00592747      -0.10296579      -3.75220513
H       -1.72221841       0.25760120      -3.76596787
47
Properties=species:S:1:pos:R:3 charge=1 spin=1 pbc="F F F"
C        2.82400154       1.09219264       2.94928204
N        2.14086031       1.33833902       1.69405962
C        2.91538642       2.08629976       0.72431451
C        0.86893744       0.95872590       1.51087623
C        0.05785344       1.13169202       0.43964663
C       -1.40887822       1.24417702       0.63346653
C       -2.06925152       2.31543611       0.01466273
C       -3.41169951       2.56747727       0.25535826
C       -4.13033827       1.75916817       1.12701796
C       -3.48755123       0.70375016       1.76415621
C       -2.14415520       0.44814865       1.51758377
H        3.71890694       0.48629152       2.79161046
H        3.13801711       2.03213508       3.41491166
H        2.17199569       0.56924214       3.64652443
H        2.28223336       2.48559354      -0.06591285
H        3.69405873       1.46007267       0.27551315
H        3.41024877       2.92945042       1.21871361
H        0.41378583       0.54256994       2.40240836
H        0.44895442       1.68958807      -0.40648627
H        0.07275097      -0.65489881      -0.69652810
H       -1.51490102       2.98703457      -0.63428395
H       -3.89600634       3.40628141      -0.23375576
H       -5.17848145       1.95072801       1.31737221
H       -4.03480006       0.06743628       2.45337664
H       -1.66209585      -0.37473468       2.04202800
C        2.41749431      -1.25970659      -1.43038213
C        1.14072823      -1.89953325      -1.93024231
N       -0.12232737      -1.44663556      -1.23038704
C       -0.64319123      -2.49581374      -0.28339080
C        0.34014674      -2.92602310       0.78256065
C       -1.21017830      -1.06624578      -2.19897825
C       -0.87108875       0.09327226      -3.11114690
H        3.25702247      -1.70115421      -1.97155948
H        2.57367863      -1.43133656      -0.36644520
H        2.41851776      -0.18888829      -1.62623251
H        1.16175837      -2.98036494      -1.81881412
H        0.99957685      -1.69838965      -2.98603599
H       -0.91849904      -3.32703258      -0.92923752
H       -1.55460236      -2.09022748       0.15070868
H        0.63772374      -2.09236637       1.41498916
H        1.23241474      -3.39705731       0.37143374
H       -0.15278414      -3.66770687       1.41158196
H       -1.39802045      -1.97723949      -2.76074796
H       -2.08899872      -0.84209437      -1.59746174
H       -0.71636351       1.01453481      -2.55187972
H       -0.00449478      -0.09268202      -3.74640588
H       -1.72371016       0.24729272      -3.77279309
47
Properties=species:S:1:pos:R:3 charge=1 spin=1 pbc="F F F"
C        2.82314865       1.09168478       2.94865606
N        2.14049568       1.33736867       1.69306657
C        2.91507182       2.08652523       0.72426132
C        0.86829174       0.95856267       1.50991373
C        0.05700002       1.13246529       0.43902771
C       -1.40969223       1.24466166       0.63306826
C       -2.07019700       2.31621407       0.01491301
C       -3.41260579       2.56803253       0.25592235
C       -4.13103539       1.75922921       1.12730246
C       -3.48813001       0.70346934       1.76373422
C       -2.14478719       0.44798771       1.51674209
H        3.71887926       0.48695901       2.79124645
H        3.13579087       2.03184515       3.41479888
H        2.17141597       0.56767443       3.64534926
H        2.28262567       2.48356640      -0.06761502
H        3.69610735       1.46175526       0.27765040
H        3.40699476       2.93128160       1.21886025
H        0.41319818       0.54197211       2.40127203
H        0.44788694       1.69071203      -0.40697753
H        0.06109075      -0.65180388      -0.69883405
H       -1.51593186       2.98821700      -0.63369255
H       -3.89705357       3.40704627      -0.23268963
H       -5.17915103       1.95065357       1.31794411
H       -4.03526163       0.06676695       2.45268859
H       -1.66261807      -0.37523630       2.04055407
C        2.41915210      -1.25349406      -1.41802883
C        1.14549292      -1.89176886      -1.92681848
N       -0.12251408      -1.44663856      -1.23160817
C       -0.64061400      -2.49817333      -0.28566866
C        0.34190190      -2.92552404       0.78210367
C       -1.20795212      -1.07630456      -2.20663225
C       -0.87634633       0.09049523      -3.11185042
H        3.26099500      -1.69121311      -1.95859501
H        2.57171529      -1.43066425      -0.35465715
H        2.41964810      -0.18175018      -1.60800573
H        1.16761082      -2.97321905      -1.82217851
H        1.00925163      -1.68405940      -2.98182183
H       -0.91140666      -3.33021800      -0.93231061
H       -1.55444794      -2.09633852       0.14674273
H        0.63615128      -2.09112441       1.41502980
H        1.23600508      -3.39434968       0.37253956
H       -0.15037027      -3.66843107       1.41020107
H       -1.38028225      -1.98697296      -2.77279681
H       -2.09344060      -0.86535028      -1.61121538
H       -0.73739621       1.01076804      -2.54800065
H       -0.00306209      -0.08239825      -3.74060663
H       -1.72520191       0.23698423      -3.77961831
47
Properties=species:S:1:pos:R:3 charge=1 spin=1 pbc="F F F"
C        2.82229576       1.09117693       2.94803007
N        2.14013104       1.33639831       1.69207351
C        2.91475721       2.08675069       0.72420813
C        0.86764604       0.95839943       1.50895124
C        0.05614660       1.13323857       0.43840879
C       -1.41050625       1.24514630       0.63267000
C       -2.07114248       2.31699204       0.01516329
C       -3.41351208       2.56858780       0.25648643
C       -4.13173250       1.75929024       1.12758695
C       -3.48870879       0.70318851       1.76331223
C       -2.14541917       0.44782676       1.51590041
H        3.71885157       0.48762650       2.79088243
H        3.13356464       2.03155522       3.41468609
H        2.17083624       0.56610673       3.64417409
H        2.28301798       2.48153925      -0.06931718
H        3.69815596       1.46343785       0.27978766
H        3.40374076       2.93311277       1.21900688
H        0.41261054       0.54137429       2.40013570
H        0.44681945       1.69183598      -0.40746879
H        0.04943052      -0.64870896      -0.70113999
H       -1.51696269       2.98939943      -0.63310116
H       -3.89810081       3.40781113      -0.23162351
H       -5.17982062       1.95057912       1.31851600
H       -4.03572319       0.06609762       2.45200054
H       -1.66314028      -0.37573792       2.03908013
C        2.42080990      -1.24728154      -1.40567554
C        1.15025762      -1.88400448      -1.92339464
N       -0.12270078      -1.44664156      -1.23282929
C       -0.63803678      -2.50053291      -0.28794651
C        0.34365707      -2.92502497       0.78164669
C       -1.20572595      -1.08636334      -2.21428624
C       -0.88160392       0.08771820      -3.11255395
H        3.26496754      -1.68127202      -1.94563055
H        2.56975196      -1.42999194      -0.34286911
H        2.42077844      -0.17461206      -1.58977895
H        1.17346327      -2.96607316      -1.82554289
H        1.01892642      -1.66972915      -2.97760767
H       -0.90431428      -3.33340341      -0.93538369
H       -1.55429351      -2.10244957       0.14277678
H        0.63457882      -2.08988246       1.41507043
H        1.23959542      -3.39164205       0.37364538
H       -0.14795639      -3.66915528       1.40882017
H       -1.36254404      -1.99670644      -2.78484567
H       -2.09788249      -0.88860619      -1.62496903
H       -0.75842892       1.00700128      -2.54412157
H       -0.00162940      -0.07211448      -3.73480739
H       -1.72669366       0.22667574      -3.78644354
47
Properties=species:S:1:pos:R:3 charge=1 spin=1 pbc="F F F"
C        2.82144287       1.09066907       2.94740409
N        2.13976641       1.33542796       1.69108046
C        2.91444260       2.08697616       0.72415494
C        0.86700034       0.95823620       1.50798874
C        0.05529318       1.13401184       0.43778987
C       -1.41132027       1.24563094       0.63227173
C       -2.07208796       2.31777000       0.01541357
C       -3.41441836       2.56914306       0.25705052
C       -4.13242962       1.75935127       1.12787144
C       -3.48928757       0.70290769       1.76289024
C       -2.14605116       0.44766582       1.51505873
H        3.71882389       0.48829399       2.79051842
H        3.13133840       2.03126529       3.41457331
H        2.17025652       0.56453902       3.64299892
H        2.28341029       2.47951211      -0.07101935
H        3.70020458       1.46512044       0.28192491
H        3.40048675       2.93494395       1.21915352
H        0.41202289       0.54077646       2.39899937
H        0.44575197       1.69295994      -0.40796005
H        0.03777030      -0.64561403      -0.70344594
H       -1.51799353       2.99058186      -0.63250976
H       -3.89914804       3.40857599      -0.23055738
H       -5.18049020       1.95050468       1.31908790
H       -4.03618475       0.06542829       2.45131249
H       -1.66366250      -0.37623954       2.03760620
C        2.42246769      -1.24106901      -1.39332224
C        1.15502231      -1.87624009      -1.91997080
N       -0.12288749      -1.44664456      -1.23405042
C       -0.63545956      -2.50289250      -0.29022437
C        0.34541223      -2.92452591       0.78118971
C       -1.20349978      -1.09642212      -2.22194023
C       -0.88686151       0.08494117      -3.11325747
H        3.26894008      -1.67133092      -1.93266608
H        2.56778863      -1.42931963      -0.33108106
H        2.42190878      -0.16747395      -1.57155217
H        1.17931572      -2.95892727      -1.82890728
H        1.02860121      -1.65539890      -2.97339351
H       -0.89722190      -3.33658882      -0.93845677
H       -1.55413908      -2.10856062       0.13881083
H        0.63300636      -2.08864050       1.41511107
H        1.24318576      -3.38893442       0.37475120
H       -0.14554252      -3.66987948       1.40743928
H       -1.34480583      -2.00643991      -2.79689452
H       -2.10232437      -0.91186210      -1.63872267
H       -0.77946163       1.00323452      -2.54024250
H       -0.00019671      -0.06183071      -3.72900814
H       -1.72818541       0.21636725      -3.79326876
