47
Properties=species:S:1:pos:R:3 charge=1 spin=1 pbc="F F F"
C        2.82214505       1.08942685       2.94772284
N        2.14014587       1.33550629       1.69184670
C        2.91480969       2.08760278       0.72535352
C        0.86755178       0.95797959       1.50842982
C        0.05571636       1.13481439       0.43846878
C       -1.41090124       1.24628931       0.63297851
C       -2.07173854       2.31827161       0.01591502
C       -3.41414152       2.56951867       0.25730629
C       -4.13219448       1.75975088       1.12810321
C       -3.48897387       0.70352732       1.76342043
C       -2.14566128       0.44844812       1.51587238
H        3.71911806       0.48662513       2.79010403
H        3.13275343       2.02953408       3.41539309
H        2.17087779       0.56326286       3.64321495
H        2.28391477       2.48014994      -0.06991259
H        3.70090763       1.46607983       0.28323656
H        3.40047918       2.93558747       1.22068969
H        0.41280580       0.53936948       2.39901094
H        0.44607275       1.69488598      -0.40660119
H        0.03961608      -0.64258963      -0.70565439
H       -1.51764124       2.99108026      -0.63201488
H       -3.89888640       3.40883823      -0.23048345
H       -5.18031305       1.95077877       1.31912162
H       -4.03586665       0.06610655       2.45189997
H       -1.66324672      -0.37521236       2.03876891
C        2.42466300      -1.25496081      -1.38782316
C        1.15288962      -1.87291294      -1.92521578
N       -0.12285596      -1.44370803      -1.23556123
C       -0.63436300      -2.49968609      -0.29078260
C        0.34996488      -2.92947359       0.77422193
C       -1.20594879      -1.09392571      -2.22103159
C       -0.89407447       0.08953750      -3.11125989
H        3.26824479      -1.68323280      -1.93331004
H        2.56869060      -1.45996128      -0.32850333
H        2.43197062      -0.17873171      -1.55009477
H        1.16806003      -2.95729965      -1.85024422
H        1.03036858      -1.63509527      -2.97546608
H       -0.90389332      -3.33061920      -0.93944309
H       -1.54874827      -2.10185300       0.14419331
H        0.64725017      -2.09675761       1.40792780
H        1.24187517      -3.39978313       0.36163091
H       -0.14267785      -3.67235509       1.40210652
H       -1.34649823      -2.00336685      -2.79709732
H       -2.10404666      -0.91225276      -1.63578560
H       -0.78522696       1.00679976      -2.53687321
H       -0.01009109      -0.05491499      -3.73136068
H       -1.73856205       0.22143716      -3.78727858
47
Properties=species:S:1:pos:R:3 charge=1 spin=1 pbc="F F F"
C        2.82284723       1.08818464       2.94804160
N        2.14052532       1.33558462       1.69261294
C        2.91517678       2.08822940       0.72655209
C        0.86810321       0.95772298       1.50887090
C        0.05613954       1.13561694       0.43914770
C       -1.41048222       1.24694767       0.63368529
C       -2.07138913       2.31877322       0.01641647
C       -3.41386468       2.56989428       0.25756206
C       -4.13195935       1.76015048       1.12833499
C       -3.48866017       0.70414696       1.76395062
C       -2.14527140       0.44923042       1.51668603
H        3.71941224       0.48495627       2.78968965
H        3.13416846       2.02780286       3.41621286
H        2.17149905       0.56198670       3.64343098
H        2.28441924       2.48078777      -0.06880583
H        3.70161067       1.46703923       0.28454822
H        3.40047162       2.93623099       1.22222586
H        0.41358870       0.53796249       2.39902251
H        0.44639352       1.69681202      -0.40524233
H        0.04146187      -0.63956522      -0.70786284
H       -1.51728895       2.99157866      -0.63152000
H       -3.89862476       3.40910046      -0.23040952
H       -5.18013589       1.95105285       1.31915535
H       -4.03554855       0.06678481       2.45248746
H       -1.66283093      -0.37418518       2.03993162
C        2.42685832      -1.26885261      -1.38232409
C        1.15075693      -1.86958580      -1.93046076
N       -0.12282442      -1.44077150      -1.23707203
C       -0.63326645      -2.49647967      -0.29134084
C        0.35451753      -2.93442127       0.76725415
C       -1.20839780      -1.09142930      -2.22012295
C       -0.90128743       0.09413382      -3.10926231
H        3.26754950      -1.69513469      -1.93395400
H        2.56959256      -1.49060293      -0.32592561
H        2.44203246      -0.18998947      -1.52863737
H        1.15680434      -2.95567203      -1.87158116
H        1.03213594      -1.61479165      -2.97753866
H       -0.91056475      -3.32464957      -0.94042940
H       -1.54335746      -2.09514537       0.14957578
H        0.66149398      -2.10487472       1.40074453
H        1.24056458      -3.41063184       0.34851063
H       -0.13981318      -3.67483069       1.39677377
H       -1.34819063      -2.00029379      -2.79730011
H       -2.10576895      -0.91264342      -1.63284852
H       -0.79099229       1.01036500      -2.53350391
H       -0.01998546      -0.04799926      -3.73371322
H       -1.74893869       0.22650707      -3.78128840
47
Properties=species:S:1:pos:R:3 charge=1 spin=1 pbc="F F F"
C        2.82354942       1.08694242       2.94836035
N        2.14090478       1.33566295       1.69337918
C        2.91554387       2.08885601       0.72775067
C        0.86865465       0.95746637       1.50931198
C        0.05656273       1.13641949       0.43982661
C       -1.41006319       1.24760604       0.63439207
C       -2.07103971       2.31927483       0.01691792
C       -3.41358784       2.57026989       0.25781783
C       -4.13172421       1.76055009       1.12856676
C       -3.48834648       0.70476659       1.76448081
C       -2.14488152       0.45001272       1.51749968
H        3.71970641       0.48328741       2.78927526
H        3.13558350       2.02607165       3.41703264
H        2.17212032       0.56071054       3.64364701
H        2.28492372       2.48142560      -0.06769906
H        3.70231372       1.46799862       0.28585987
H        3.40046405       2.93687451       1.22376204
H        0.41437161       0.53655551       2.39903409
H        0.44671430       1.69873806      -0.40388348
H        0.04330765      -0.63654082      -0.71007129
H       -1.51693666       2.99207706      -0.63102512
H       -3.89836312       3.40936270      -0.23033558
H       -5.17995874       1.95132694       1.31918907
H       -4.03523044       0.06746307       2.45307494
H       -1.66241515      -0.37315800       2.04109433
C        2.42905363      -1.28274440      -1.37682501
C        1.14862424      -1.86625865      -1.93570574
N       -0.12279289      -1.43783497      -1.23858284
C       -0.63216989      -2.49327326      -0.29189907
C        0.35907019      -2.93936895       0.76028637
C       -1.21084681      -1.08893290      -2.21921431
C       -0.90850038       0.09873015      -3.10726473
H        3.26685422      -1.70703657      -1.93459796
H        2.57049453      -1.52124458      -0.32334788
H        2.45209429      -0.20124723      -1.50717997
H        1.14554865      -2.95404441      -1.89291810
H        1.03390331      -1.59448802      -2.97961123
H       -0.91723617      -3.31867995      -0.94141572
H       -1.53796665      -2.08843775       0.15495826
H        0.67573779      -2.11299184       1.39356126
H        1.23925400      -3.42148056       0.33539034
H       -0.13694851      -3.67730630       1.39144101
H       -1.34988303      -1.99722073      -2.79750291
H       -2.10749125      -0.91303409      -1.62991145
H       -0.79675762       1.01393024      -2.53013462
H       -0.02987984      -0.04108354      -3.73606575
H       -1.75931533       0.23157698      -3.77529822
47
Properties=species:S:1:pos:R:3 charge=1 spin=1 pbc="F F F"
C        2.82425160       1.08570020       2.94867911
N        2.14128423       1.33574128       1.69414543
C        2.91591096       2.08948263       0.72894925
C        0.86920609       0.95720976       1.50975306
C        0.05698591       1.13722204       0.44050553
C       -1.40964416       1.24826440       0.63509884
C       -2.07069030       2.31977644       0.01741937
C       -3.41331100       2.57064550       0.25807360
C       -4.13148907       1.76094970       1.12879854
C       -3.48803278       0.70538622       1.76501100
C       -2.14449164       0.45079503       1.51831334
H        3.72000058       0.48161855       2.78886088
H        3.13699853       2.02434043       3.41785241
H        2.17274158       0.55943438       3.64386303
H        2.28542820       2.48206343      -0.06659230
H        3.70301676       1.46895802       0.28717153
H        3.40045649       2.93751804       1.22529821
H        0.41515452       0.53514852       2.39904566
H        0.44703508       1.70066410      -0.40252462
H        0.04515343      -0.63351641      -0.71227974
H       -1.51658437       2.99257546      -0.63053024
H       -3.89810148       3.40962494      -0.23026165
H       -5.17978158       1.95160102       1.31922280
H       -4.03491234       0.06814134       2.45366243
H       -1.66199937      -0.37213083       2.04225703
C        2.43124894      -1.29663620      -1.37132594
C        1.14649155      -1.86293150      -1.94095072
N       -0.12276136      -1.43489844      -1.24009364
C       -0.63107334      -2.49006685      -0.29245730
C        0.36362284      -2.94431663       0.75331859
C       -1.21329582      -1.08643649      -2.21830567
C       -0.91571334       0.10332647      -3.10526715
H        3.26615893      -1.71893845      -1.93524192
H        2.57139649      -1.55188623      -0.32077015
H        2.46215613      -0.21250499      -1.48572256
H        1.13429297      -2.95241679      -1.91425504
H        1.03567067      -1.57418439      -2.98168380
H       -0.92390760      -3.31271033      -0.94240204
H       -1.53257585      -2.08173012       0.16034073
H        0.68998160      -2.12110895       1.38637799
H        1.23794341      -3.43232927       0.32227005
H       -0.13408385      -3.67978191       1.38610826
H       -1.35157544      -1.99414767      -2.79770570
H       -2.10921354      -0.91342475      -1.62697438
H       -0.80252295       1.01749548      -2.52676533
H       -0.03977422      -0.03416782      -3.73841829
H       -1.76969196       0.23664690      -3.76930804
47
Properties=species:S:1:pos:R:3 charge=1 spin=1 pbc="F F F"
C        2.82495378       1.08445799       2.94899786
N        2.14166369       1.33581961       1.69491167
C        2.91627805       2.09010925       0.73014782
C        0.86975752       0.95695315       1.51019413
C        0.05740909       1.13802460       0.44118444
C       -1.40922513       1.24892277       0.63580562
C       -2.07034088       2.32027805       0.01792082
C       -3.41303416       2.57102111       0.25832937
C       -4.13125394       1.76134931       1.12903031
C       -3.48771908       0.70600585       1.76554120
C       -2.14410176       0.45157733       1.51912699
H        3.72029476       0.47994969       2.78844649
H        3.13841356       2.02260922       3.41867219
H        2.17336285       0.55815822       3.64407906
H        2.28593267       2.48270126      -0.06548554
H        3.70371981       1.46991741       0.28848318
H        3.40044892       2.93816156       1.22683438
H        0.41593743       0.53374154       2.39905723
H        0.44735585       1.70259014      -0.40116576
H        0.04699922      -0.63049201      -0.71448819
H       -1.51623208       2.99307386      -0.63003536
H       -3.89783984       3.40988717      -0.23018772
H       -5.17960443       1.95187511       1.31925652
H       -4.03459424       0.06881960       2.45424991
H       -1.66158359      -0.37110365       2.04341974
C        2.43344426      -1.31052800      -1.36582686
C        1.14435886      -1.85960436      -1.94619570
N       -0.12272982      -1.43196190      -1.24160445
C       -0.62997678      -2.48686044      -0.29301554
C        0.36817549      -2.94926430       0.74635081
C       -1.21574484      -1.08394008      -2.21739703
C       -0.92292630       0.10792280      -3.10326956
H        3.26546364      -1.73084034      -1.93588587
H        2.57229846      -1.58252788      -0.31819242
H        2.47221797      -0.22376275      -1.46426516
H        1.12303728      -2.95078917      -1.93559199
H        1.03743804      -1.55388076      -2.98375638
H       -0.93057902      -3.30674071      -0.94338836
H       -1.52718504      -2.07502250       0.16572321
H        0.70422541      -2.12922606       1.37919472
H        1.23663282      -3.44317798       0.30914976
H       -0.13121918      -3.68225752       1.38077550
H       -1.35326784      -1.99107461      -2.79790850
H       -2.11093583      -0.91381541      -1.62403730
H       -0.80828827       1.02106072      -2.52339604
H       -0.04966860      -0.02725210      -3.74077083
H       -1.78006860       0.24171681      -3.76331786
47
Properties=species:S:1:pos:R:3 charge=1 spin=1 pbc="F F F"
C        2.82565596       1.08321577       2.94931661
N        2.14204314       1.33589795       1.69567791
C        2.91664514       2.09073587       0.73134640
C        0.87030896       0.95669654       1.51063521
C        0.05783227       1.13882715       0.44186336
C       -1.40880611       1.24958114       0.63651240
C       -2.06999146       2.32077966       0.01842227
C       -3.41275732       2.57139672       0.25858514
C       -4.13101880       1.76174891       1.12926209
C       -3.48740538       0.70662549       1.76607139
C       -2.14371188       0.45235963       1.51994064
H        3.72058893       0.47828083       2.78803211
H        3.13982859       2.02087800       3.41949196
H        2.17398412       0.55688206       3.64429509
H        2.28643715       2.48333909      -0.06437878
H        3.70442286       1.47087681       0.28979484
H        3.40044135       2.93880508       1.22837055
H        0.41672033       0.53233455       2.39906880
H        0.44767663       1.70451618      -0.39980690
H        0.04884500      -0.62746761      -0.71669664
H       -1.51587979       2.99357226      -0.62954048
H       -3.89757820       3.41014941      -0.23011379
H       -5.17942727       1.95214919       1.31929025
H       -4.03427614       0.06949786       2.45483740
H       -1.66116780      -0.37007647       2.04458245
C        2.43563957      -1.32441980      -1.36032779
C        1.14222617      -1.85627721      -1.95144068
N       -0.12269829      -1.42902537      -1.24311525
C       -0.62888023      -2.48365402      -0.29357377
C        0.37272814      -2.95421198       0.73938302
C       -1.21819385      -1.08144367      -2.21648839
C       -0.93013926       0.11251912      -3.10127198
H        3.26476835      -1.74274222      -1.93652983
H        2.57320042      -1.61316954      -0.31561470
H        2.48227981      -0.23502051      -1.44280776
H        1.11178159      -2.94916155      -1.95692893
H        1.03920541      -1.53357714      -2.98582895
H       -0.93725045      -3.30077108      -0.94437467
H       -1.52179423      -2.06831488       0.17110568
H        0.71846922      -2.13734317       1.37201145
H        1.23532223      -3.45402669       0.29602948
H       -0.12835451      -3.68473312       1.37544275
H       -1.35496024      -1.98800156      -2.79811130
H       -2.11265812      -0.91420607      -1.62110023
H       -0.81405360       1.02462596      -2.52002674
H       -0.05956297      -0.02033637      -3.74312337
H       -1.79044524       0.24678672      -3.75732768
47
Properties=species:S:1:pos:R:3 charge=1 spin=1 pbc="F F F"
C        2.82635814       1.08197356       2.94963537
N        2.14242260       1.33597628       1.69644415
C        2.91701223       2.09136249       0.73254497
C        0.87086040       0.95643993       1.51107629
C        0.05825545       1.13962970       0.44254227
C       -1.40838708       1.25023950       0.63721918
C       -2.06964205       2.32128127       0.01892372
C       -3.41248048       2.57177233       0.25884091
C       -4.13078366       1.76214852       1.12949386
C       -3.48709168       0.70724512       1.76660158
C       -2.14332200       0.45314193       1.52075429
H        3.72088310       0.47661197       2.78761772
H        3.14124362       2.01914679       3.42031174
H        2.17460538       0.55560590       3.64451112
H        2.28694162       2.48397692      -0.06327201
H        3.70512590       1.47183620       0.29110649
H        3.40043379       2.93944860       1.22990672
H        0.41750324       0.53092757       2.39908038
H        0.44799741       1.70644222      -0.39844805
H        0.05069078      -0.62444320      -0.71890509
H       -1.51552750       2.99407066      -0.62904560
H       -3.89731656       3.41041165      -0.23003985
H       -5.17925012       1.95242328       1.31932397
H       -4.03395804       0.07017612       2.45542488
H       -1.66075202      -0.36904929       2.04574516
C        2.43783488      -1.33831159      -1.35482871
C        1.14009348      -1.85295006      -1.95668566
N       -0.12266676      -1.42608884      -1.24462606
C       -0.62778367      -2.48044761      -0.29413201
C        0.37728079      -2.95915966       0.73241524
C       -1.22064286      -1.07894726      -2.21557975
C       -0.93735222       0.11711545      -3.09927440
H        3.26407306      -1.75464410      -1.93717379
H        2.57410239      -1.64381119      -0.31303697
H        2.49234164      -0.24627827      -1.42135036
H        1.10052590      -2.94753393      -1.97826587
H        1.04097277      -1.51327351      -2.98790152
H       -0.94392187      -3.29480146      -0.94536099
H       -1.51640342      -2.06160725       0.17648816
H        0.73271303      -2.14546028       1.36482818
H        1.23401164      -3.46487540       0.28290919
H       -0.12548984      -3.68720873       1.37010999
H       -1.35665264      -1.98492850      -2.79831409
H       -2.11438042      -0.91459674      -1.61816316
H       -0.81981893       1.02819120      -2.51665745
H       -0.06945735      -0.01342065      -3.74547591
H       -1.80082188       0.25185663      -3.75133750
47
Properties=species:S:1:pos:R:3 charge=1 spin=1 pbc="F F F"
C        2.82706033       1.08073134       2.94995412
N        2.14280206       1.33605461       1.69721039
C        2.91737933       2.09198910       0.73374355
C        0.87141183       0.95618332       1.51151737
C        0.05867864       1.14043225       0.44322119
C       -1.40796805       1.25089787       0.63792596
C       -2.06929263       2.32178288       0.01942517
C       -3.41220364       2.57214794       0.25909668
C       -4.13054853       1.76254813       1.12972564
C       -3.48677798       0.70786475       1.76713177
C       -2.14293211       0.45392423       1.52156794
H        3.72117728       0.47494311       2.78720333
H        3.14265866       2.01741557       3.42113151
H        2.17522665       0.55432974       3.64472715
H        2.28744610       2.48461475      -0.06216525
H        3.70582895       1.47279560       0.29241814
H        3.40042622       2.94009212       1.23144290
H        0.41828615       0.52952058       2.39909195
H        0.44831818       1.70836826      -0.39708919
H        0.05253657      -0.62141880      -0.72111354
H       -1.51517521       2.99456906      -0.62855072
H       -3.89705492       3.41067388      -0.22996592
H       -5.17907296       1.95269736       1.31935769
H       -4.03363993       0.07085438       2.45601236
H       -1.66033624      -0.36802211       2.04690787
C        2.44003019      -1.35220339      -1.34932964
C        1.13796079      -1.84962292      -1.96193064
N       -0.12263523      -1.42315231      -1.24613686
C       -0.62668712      -2.47724120      -0.29469024
C        0.38183345      -2.96410734       0.72544746
C       -1.22309187      -1.07645086      -2.21467110
C       -0.94456517       0.12171177      -3.09727682
H        3.26337778      -1.76654599      -1.93781775
H        2.57500435      -1.67445284      -0.31045924
H        2.50240348      -0.25753603      -1.39989296
H        1.08927021      -2.94590631      -1.99960281
H        1.04274014      -1.49296988      -2.98997410
H       -0.95059330      -3.28883184      -0.94634731
H       -1.51101261      -2.05489963       0.18187063
H        0.74695684      -2.15357739       1.35764491
H        1.23270106      -3.47572412       0.26978890
H       -0.12262517      -3.68968434       1.36477724
H       -1.35834504      -1.98185544      -2.79851689
H       -2.11610271      -0.91498740      -1.61522608
H       -0.82558426       1.03175644      -2.51328816
H       -0.07935173      -0.00650493      -3.74782844
H       -1.81119852       0.25692654      -3.74534732
47
Properties=species:S:1:pos:R:3 charge=1 spin=1 pbc="F F F"
C        2.82776251       1.07948912       2.95027288
N        2.14318151       1.33613294       1.69797663
C        2.91774642       2.09261572       0.73494213
C        0.87196327       0.95592671       1.51195845
C        0.05910182       1.14123480       0.44390010
C       -1.40754903       1.25155624       0.63863274
C       -2.06894321       2.32228449       0.01992662
C       -3.41192680       2.57252355       0.25935245
C       -4.13031339       1.76294774       1.12995741
C       -3.48646429       0.70848438       1.76766196
C       -2.14254223       0.45470653       1.52238159
H        3.72147145       0.47327425       2.78678895
H        3.14407369       2.01568436       3.42195129
H        2.17584791       0.55305358       3.64494318
H        2.28795058       2.48525258      -0.06105849
H        3.70653199       1.47375499       0.29372980
H        3.40041865       2.94073564       1.23297907
H        0.41906906       0.52811360       2.39910352
H        0.44863896       1.71029430      -0.39573033
H        0.05438235      -0.61839439      -0.72332199
H       -1.51482292       2.99506746      -0.62805584
H       -3.89679327       3.41093612      -0.22989199
H       -5.17889581       1.95297145       1.31939142
H       -4.03332183       0.07153264       2.45659985
H       -1.65992045      -0.36699493       2.04807058
C        2.44222551      -1.36609519      -1.34383056
C        1.13582810      -1.84629577      -1.96717562
N       -0.12260369      -1.42021578      -1.24764767
C       -0.62559056      -2.47403478      -0.29524847
C        0.38638610      -2.96905502       0.71847968
C       -1.22554088      -1.07395445      -2.21376246
C       -0.95177813       0.12630810      -3.09527924
H        3.26268249      -1.77844787      -1.93846171
H        2.57590632      -1.70509449      -0.30788152
H        2.51246532      -0.26879379      -1.37843556
H        1.07801452      -2.94427869      -2.02093975
H        1.04450751      -1.47266626      -2.99204667
H       -0.95726472      -3.28286221      -0.94733363
H       -1.50562180      -2.04819200       0.18725311
H        0.76120065      -2.16169451       1.35046164
H        1.23139047      -3.48657283       0.25666862
H       -0.11976050      -3.69215994       1.35944448
H       -1.36003744      -1.97878238      -2.79871968
H       -2.11782500      -0.91537806      -1.61228901
H       -0.83134959       1.03532168      -2.50991886
H       -0.08924610       0.00041080      -3.75018098
H       -1.82157516       0.26199645      -3.73935714
47
Properties=species:S:1:pos:R:3 charge=1 spin=1 pbc="F F F"
C        2.82846469       1.07824691       2.95059163
N        2.14356097       1.33621127       1.69874287
C        2.91811351       2.09324234       0.73614070
C        0.87251471       0.95567010       1.51239953
C        0.05952500       1.14203735       0.44457902
C       -1.40713000       1.25221460       0.63933951
C       -2.06859380       2.32278610       0.02042807
C       -3.41164996       2.57289916       0.25960822
C       -4.13007825       1.76334734       1.13018919
C       -3.48615059       0.70910402       1.76819215
C       -2.14215235       0.45548883       1.52319525
H        3.72176562       0.47160538       2.78637456
H        3.14548872       2.01395314       3.42277106
H        2.17646918       0.55177742       3.64515921
H        2.28845505       2.48589041      -0.05995173
H        3.70723504       1.47471439       0.29504145
H        3.40041109       2.94137917       1.23451524
H        0.41985196       0.52670661       2.39911509
H        0.44895974       1.71222034      -0.39437147
H        0.05622813      -0.61536999      -0.72553044
H       -1.51447063       2.99556586      -0.62756096
H       -3.89653163       3.41119836      -0.22981806
H       -5.17871865       1.95324553       1.31942514
H       -4.03300373       0.07221090       2.45718733
H       -1.65950467      -0.36596776       2.04923328
C        2.44442082      -1.37998699      -1.33833149
C        1.13369541      -1.84296862      -1.97242060
N       -0.12257216      -1.41727925      -1.24915847
C       -0.62449401      -2.47082837      -0.29580671
C        0.39093875      -2.97400270       0.71151190
C       -1.22798989      -1.07145804      -2.21285382
C       -0.95899109       0.13090442      -3.09328166
H        3.26198720      -1.79034975      -1.93910567
H        2.57680828      -1.73573614      -0.30530379
H        2.52252716      -0.28005155      -1.35697816
H        1.06675884      -2.94265107      -2.04227669
H        1.04627487      -1.45236263      -2.99411925
H       -0.96393615      -3.27689259      -0.94831994
H       -1.50023099      -2.04148438       0.19263559
H        0.77544447      -2.16981162       1.34327837
H        1.23007988      -3.49742154       0.24354833
H       -0.11689584      -3.69463555       1.35411173
H       -1.36172984      -1.97570932      -2.79892248
H       -2.11954729      -0.91576872      -1.60935194
H       -0.83711492       1.03888691      -2.50654957
H       -0.09914048       0.00732652      -3.75253352
H       -1.83195180       0.26706637      -3.73336696
47
Properties=species:S:1:pos:R:3 charge=1 spin=1 pbc="F F F"
C        2.82776251       1.07948912       2.95027288
N        2.14318151       1.33613294       1.69797663
C        2.91774642       2.09261572       0.73494213
C        0.87196327       0.95592671       1.51195845
C        0.05910182       1.14123480       0.44390010
C       -1.40754903       1.25155624       0.63863274
C       -2.06894321       2.32228449       0.01992662
C       -3.41192680       2.57252355       0.25935245
C       -4.13031339       1.76294774       1.12995741
C       -3.48646429       0.70848438       1.76766196
C       -2.14254223       0.45470653       1.52238159
H        3.72147145       0.47327425       2.78678895
H        3.14407369       2.01568436       3.42195129
H        2.17584791       0.55305358       3.64494318
H        2.28795058       2.48525258      -0.06105849
H        3.70653199       1.47375499       0.29372980
H        3.40041865       2.94073564       1.23297907
H        0.41906906       0.52811360       2.39910352
H        0.44863896       1.71029430      -0.39573033
H        0.05438235      -0.61839439      -0.72332199
H       -1.51482292       2.99506746      -0.62805584
H       -3.89679327       3.41093612      -0.22989199
H       -5.17889581       1.95297145       1.31939142
H       -4.03332183       0.07153264       2.45659985
H       -1.65992045      -0.36699493       2.04807058
C        2.44222551      -1.36609519      -1.34383056
C        1.13582810      -1.84629577      -1.96717562
N       -0.12260369      -1.42021578      -1.24764767
C       -0.62559056      -2.47403478      -0.29524847
C        0.38638610      -2.96905502       0.71847968
C       -1.22554088      -1.07395445      -2.21376246
C       -0.95177813       0.12630810      -3.09527924
H        3.26268249      -1.77844787      -1.93846171
H        2.57590632      -1.70509449      -0.30788152
H        2.51246532      -0.26879379      -1.37843556
H        1.07801452      -2.94427869      -2.02093975
H        1.04450751      -1.47266626      -2.99204667
H       -0.95726472      -3.28286221      -0.94733363
H       -1.50562180      -2.04819200       0.18725311
H        0.76120065      -2.16169451       1.35046164
H        1.23139047      -3.48657283       0.25666862
H       -0.11976050      -3.69215994       1.35944448
H       -1.36003744      -1.97878238      -2.79871968
H       -2.11782500      -0.91537806      -1.61228901
H       -0.83134959       1.03532168      -2.50991886
H       -0.08924610       0.00041080      -3.75018098
H       -1.82157516       0.26199645      -3.73935714
47
Properties=species:S:1:pos:R:3 charge=1 spin=1 pbc="F F F"
C        2.82706033       1.08073134       2.94995412
N        2.14280206       1.33605461       1.69721039
C        2.91737933       2.09198910       0.73374355
C        0.87141183       0.95618332       1.51151737
C        0.05867864       1.14043225       0.44322119
C       -1.40796805       1.25089787       0.63792596
C       -2.06929263       2.32178288       0.01942517
C       -3.41220364       2.57214794       0.25909668
C       -4.13054853       1.76254813       1.12972564
C       -3.48677798       0.70786475       1.76713177
C       -2.14293211       0.45392423       1.52156794
H        3.72117728       0.47494311       2.78720333
H        3.14265866       2.01741557       3.42113151
H        2.17522665       0.55432974       3.64472715
H        2.28744610       2.48461475      -0.06216525
H        3.70582895       1.47279560       0.29241814
H        3.40042622       2.94009212       1.23144290
H        0.41828615       0.52952058       2.39909195
H        0.44831818       1.70836826      -0.39708919
H        0.05253657      -0.62141880      -0.72111354
H       -1.51517521       2.99456906      -0.62855072
H       -3.89705492       3.41067388      -0.22996592
H       -5.17907296       1.95269736       1.31935769
H       -4.03363993       0.07085438       2.45601236
H       -1.66033624      -0.36802211       2.04690787
C        2.44003019      -1.35220339      -1.34932964
C        1.13796079      -1.84962292      -1.96193064
N       -0.12263523      -1.42315231      -1.24613686
C       -0.62668712      -2.47724120      -0.29469024
C        0.38183345      -2.96410734       0.72544746
C       -1.22309187      -1.07645086      -2.21467110
C       -0.94456517       0.12171177      -3.09727682
H        3.26337778      -1.76654599      -1.93781775
H        2.57500435      -1.67445284      -0.31045924
H        2.50240348      -0.25753603      -1.39989296
H        1.08927021      -2.94590631      -1.99960281
H        1.04274014      -1.49296988      -2.98997410
H       -0.95059330      -3.28883184      -0.94634731
H       -1.51101261      -2.05489963       0.18187063
H        0.74695684      -2.15357739       1.35764491
H        1.23270106      -3.47572412       0.26978890
H       -0.12262517      -3.68968434       1.36477724
H       -1.35834504      -1.98185544      -2.79851689
H       -2.11610271      -0.91498740      -1.61522608
H       -0.82558426       1.03175644      -2.51328816
H       -0.07935173      -0.00650493      -3.74782844
H       -1.81119852       0.25692654      -3.74534732
47
Properties=species:S:1:pos:R:3 charge=1 spin=1 pbc="F F F"
C        2.82635814       1.08197356       2.94963537
N        2.14242260       1.33597628       1.69644415
C        2.91701223       2.09136249       0.73254497
C        0.87086040       0.95643993       1.51107629
C        0.05825545       1.13962970       0.44254227
C       -1.40838708       1.25023950       0.63721918
C       -2.06964205       2.32128127       0.01892372
C       -3.41248048       2.57177233       0.25884091
C       -4.13078366       1.76214852       1.12949386
C       -3.48709168       0.70724512       1.76660158
C       -2.14332200       0.45314193       1.52075429
H        3.72088310       0.47661197       2.78761772
H        3.14124362       2.01914679       3.42031174
H        2.17460538       0.55560590       3.64451112
H        2.28694162       2.48397692      -0.06327201
H        3.70512590       1.47183620       0.29110649
H        3.40043379       2.93944860       1.22990672
H        0.41750324       0.53092757       2.39908038
H        0.44799741       1.70644222      -0.39844805
H        0.05069078      -0.62444320      -0.71890509
H       -1.51552750       2.99407066      -0.62904560
H       -3.89731656       3.41041165      -0.23003985
H       -5.17925012       1.95242328       1.31932397
H       -4.03395804       0.07017612       2.45542488
H       -1.66075202      -0.36904929       2.04574516
C        2.43783488      -1.33831159      -1.35482871
C        1.14009348      -1.85295006      -1.95668566
N       -0.12266676      -1.42608884      -1.24462606
C       -0.62778367      -2.48044761      -0.29413201
C        0.37728079      -2.95915966       0.73241524
C       -1.22064286      -1.07894726      -2.21557975
C       -0.93735222       0.11711545      -3.09927440
H        3.26407306      -1.75464410      -1.93717379
H        2.57410239      -1.64381119      -0.31303697
H        2.49234164      -0.24627827      -1.42135036
H        1.10052590      -2.94753393      -1.97826587
H        1.04097277      -1.51327351      -2.98790152
H       -0.94392187      -3.29480146      -0.94536099
H       -1.51640342      -2.06160725       0.17648816
H        0.73271303      -2.14546028       1.36482818
H        1.23401164      -3.46487540       0.28290919
H       -0.12548984      -3.68720873       1.37010999
H       -1.35665264      -1.98492850      -2.79831409
H       -2.11438042      -0.91459674      -1.61816316
H       -0.81981893       1.02819120      -2.51665745
H       -0.06945735      -0.01342065      -3.74547591
H       -1.80082188       0.25185663      -3.75133750
47
Properties=species:S:1:pos:R:3 charge=1 spin=1 pbc="F F F"
C        2.82565596       1.08321577       2.94931661
N        2.14204314       1.33589795       1.69567791
C        2.91664514       2.09073587       0.73134640
C        0.87030896       0.95669654       1.51063521
C        0.05783227       1.13882715       0.44186336
C       -1.40880611       1.24958114       0.63651240
C       -2.06999146       2.32077966       0.01842227
C       -3.41275732       2.57139672       0.25858514
C       -4.13101880       1.76174891       1.12926209
C       -3.48740538       0.70662549       1.76607139
C       -2.14371188       0.45235963       1.51994064
H        3.72058893       0.47828083       2.78803211
H        3.13982859       2.02087800       3.41949196
H        2.17398412       0.55688206       3.64429509
H        2.28643715       2.48333909      -0.06437878
H        3.70442286       1.47087681       0.28979484
H        3.40044135       2.93880508       1.22837055
H        0.41672033       0.53233455       2.39906880
H        0.44767663       1.70451618      -0.39980690
H        0.04884500      -0.62746761      -0.71669664
H       -1.51587979       2.99357226      -0.62954048
H       -3.89757820       3.41014941      -0.23011379
H       -5.17942727       1.95214919       1.31929025
H       -4.03427614       0.06949786       2.45483740
H       -1.66116780      -0.37007647       2.04458245
C        2.43563957      -1.32441980      -1.36032779
C        1.14222617      -1.85627721      -1.95144068
N       -0.12269829      -1.42902537      -1.24311525
C       -0.62888023      -2.48365402      -0.29357377
C        0.37272814      -2.95421198       0.73938302
C       -1.21819385      -1.08144367      -2.21648839
C       -0.93013926       0.11251912      -3.10127198
H        3.26476835      -1.74274222      -1.93652983
H        2.57320042      -1.61316954      -0.31561470
H        2.48227981      -0.23502051      -1.44280776
H        1.11178159      -2.94916155      -1.95692893
H        1.03920541      -1.53357714      -2.98582895
H       -0.93725045      -3.30077108      -0.94437467
H       -1.52179423      -2.06831488       0.17110568
H        0.71846922      -2.13734317       1.37201145
H        1.23532223      -3.45402669       0.29602948
H       -0.12835451      -3.68473312       1.37544275
H       -1.35496024      -1.98800156      -2.79811130
H       -2.11265812      -0.91420607      -1.62110023
H       -0.81405360       1.02462596      -2.52002674
H       -0.05956297      -0.02033637      -3.74312337
H       -1.79044524       0.24678672      -3.75732768
47
Properties=species:S:1:pos:R:3 charge=1 spin=1 pbc="F F F"
C        2.82495378       1.08445799       2.94899786
N        2.14166369       1.33581961       1.69491167
C        2.91627805       2.09010925       0.73014782
C        0.86975752       0.95695315       1.51019413
C        0.05740909       1.13802460       0.44118444
C       -1.40922513       1.24892277       0.63580562
C       -2.07034088       2.32027805       0.01792082
C       -3.41303416       2.57102111       0.25832937
C       -4.13125394       1.76134931       1.12903031
C       -3.48771908       0.70600585       1.76554120
C       -2.14410176       0.45157733       1.51912699
H        3.72029476       0.47994969       2.78844649
H        3.13841356       2.02260922       3.41867219
H        2.17336285       0.55815822       3.64407906
H        2.28593267       2.48270126      -0.06548554
H        3.70371981       1.46991741       0.28848318
H        3.40044892       2.93816156       1.22683438
H        0.41593743       0.53374154       2.39905723
H        0.44735585       1.70259014      -0.40116576
H        0.04699922      -0.63049201      -0.71448819
H       -1.51623208       2.99307386      -0.63003536
H       -3.89783984       3.40988717      -0.23018772
H       -5.17960443       1.95187511       1.31925652
H       -4.03459424       0.06881960       2.45424991
H       -1.66158359      -0.37110365       2.04341974
C        2.43344426      -1.31052800      -1.36582686
C        1.14435886      -1.85960436      -1.94619570
N       -0.12272982      -1.43196190      -1.24160445
C       -0.62997678      -2.48686044      -0.29301554
C        0.36817549      -2.94926430       0.74635081
C       -1.21574484      -1.08394008      -2.21739703
C       -0.92292630       0.10792280      -3.10326956
H        3.26546364      -1.73084034      -1.93588587
H        2.57229846      -1.58252788      -0.31819242
H        2.47221797      -0.22376275      -1.46426516
H        1.12303728      -2.95078917      -1.93559199
H        1.03743804      -1.55388076      -2.98375638
H       -0.93057902      -3.30674071      -0.94338836
H       -1.52718504      -2.07502250       0.16572321
H        0.70422541      -2.12922606       1.37919472
H        1.23663282      -3.44317798       0.30914976
H       -0.13121918      -3.68225752       1.38077550
H       -1.35326784      -1.99107461      -2.79790850
H       -2.11093583      -0.91381541      -1.62403730
H       -0.80828827       1.02106072      -2.52339604
H       -0.04966860      -0.02725210      -3.74077083
H       -1.78006860       0.24171681      -3.76331786
47
Properties=species:S:1:pos:R:3 charge=1 spin=1 pbc="F F F"
C        2.82425160       1.08570020       2.94867911
N        2.14128423       1.33574128       1.69414543
C        2.91591096       2.08948263       0.72894925
C        0.86920609       0.95720976       1.50975306
C        0.05698591       1.13722204       0.44050553
C       -1.40964416       1.24826440       0.63509884
C       -2.07069030       2.31977644       0.01741937
C       -3.41331100       2.57064550       0.25807360
C       -4.13148907       1.76094970       1.12879854
C       -3.48803278       0.70538622       1.76501100
C       -2.14449164       0.45079503       1.51831334
H        3.72000058       0.48161855       2.78886088
H        3.13699853       2.02434043       3.41785241
H        2.17274158       0.55943438       3.64386303
H        2.28542820       2.48206343      -0.06659230
H        3.70301676       1.46895802       0.28717153
H        3.40045649       2.93751804       1.22529821
H        0.41515452       0.53514852       2.39904566
H        0.44703508       1.70066410      -0.40252462
H        0.04515343      -0.63351641      -0.71227974
H       -1.51658437       2.99257546      -0.63053024
H       -3.89810148       3.40962494      -0.23026165
H       -5.17978158       1.95160102       1.31922280
H       -4.03491234       0.06814134       2.45366243
H       -1.66199937      -0.37213083       2.04225703
C        2.43124894      -1.29663620      -1.37132594
C        1.14649155      -1.86293150      -1.94095072
N       -0.12276136      -1.43489844      -1.24009364
C       -0.63107334      -2.49006685      -0.29245730
C        0.36362284      -2.94431663       0.75331859
C       -1.21329582      -1.08643649      -2.21830567
C       -0.91571334       0.10332647      -3.10526715
H        3.26615893      -1.71893845      -1.93524192
H        2.57139649      -1.55188623      -0.32077015
H        2.46215613      -0.21250499      -1.48572256
H        1.13429297      -2.95241679      -1.91425504
H        1.03567067      -1.57418439      -2.98168380
H       -0.92390760      -3.31271033      -0.94240204
H       -1.53257585      -2.08173012       0.16034073
H        0.68998160      -2.12110895       1.38637799
H        1.23794341      -3.43232927       0.32227005
H       -0.13408385      -3.67978191       1.38610826
H       -1.35157544      -1.99414767      -2.79770570
H       -2.10921354      -0.91342475      -1.62697438
H       -0.80252295       1.01749548      -2.52676533
H       -0.03977422      -0.03416782      -3.73841829
H       -1.76969196       0.23664690      -3.76930804
47
Properties=species:S:1:pos:R:3 charge=1 spin=1 pbc="F F F"
C        2.82354942       1.08694242       2.94836035
N        2.14090478       1.33566295       1.69337918
C        2.91554387       2.08885601       0.72775067
C        0.86865465       0.95746637       1.50931198
C        0.05656273       1.13641949       0.43982661
C       -1.41006319       1.24760604       0.63439207
C       -2.07103971       2.31927483       0.01691792
C       -3.41358784       2.57026989       0.25781783
C       -4.13172421       1.76055009       1.12856676
C       -3.48834648       0.70476659       1.76448081
C       -2.14488152       0.45001272       1.51749968
H        3.71970641       0.48328741       2.78927526
H        3.13558350       2.02607165       3.41703264
H        2.17212032       0.56071054       3.64364701
H        2.28492372       2.48142560      -0.06769906
H        3.70231372       1.46799862       0.28585987
H        3.40046405       2.93687451       1.22376204
H        0.41437161       0.53655551       2.39903409
H        0.44671430       1.69873806      -0.40388348
H        0.04330765      -0.63654082      -0.71007129
H       -1.51693666       2.99207706      -0.63102512
H       -3.89836312       3.40936270      -0.23033558
H       -5.17995874       1.95132694       1.31918907
H       -4.03523044       0.06746307       2.45307494
H       -1.66241515      -0.37315800       2.04109433
C        2.42905363      -1.28274440      -1.37682501
C        1.14862424      -1.86625865      -1.93570574
N       -0.12279289      -1.43783497      -1.23858284
C       -0.63216989      -2.49327326      -0.29189907
C        0.35907019      -2.93936895       0.76028637
C       -1.21084681      -1.08893290      -2.21921431
C       -0.90850038       0.09873015      -3.10726473
H        3.26685422      -1.70703657      -1.93459796
H        2.57049453      -1.52124458      -0.32334788
H        2.45209429      -0.20124723      -1.50717997
H        1.14554865      -2.95404441      -1.89291810
H        1.03390331      -1.59448802      -2.97961123
H       -0.91723617      -3.31867995      -0.94141572
H       -1.53796665      -2.08843775       0.15495826
H        0.67573779      -2.11299184       1.39356126
H        1.23925400      -3.42148056       0.33539034
H       -0.13694851      -3.67730630       1.39144101
H       -1.34988303      -1.99722073      -2.79750291
H       -2.10749125      -0.91303409      -1.62991145
H       -0.79675762       1.01393024      -2.53013462
H       -0.02987984      -0.04108354      -3.73606575
H       -1.75931533       0.23157698      -3.77529822
47
Properties=species:S:1:pos:R:3 charge=1 spin=1 pbc="F F F"
C        2.82284723       1.08818464       2.94804160
N        2.14052532       1.33558462       1.69261294
C        2.91517678       2.08822940       0.72655209
C        0.86810321       0.95772298       1.50887090
C        0.05613954       1.13561694       0.43914770
C       -1.41048222       1.24694767       0.63368529
C       -2.07138913       2.31877322       0.01641647
C       -3.41386468       2.56989428       0.25756206
C       -4.13195935       1.76015048       1.12833499
C       -3.48866017       0.70414696       1.76395062
C       -2.14527140       0.44923042       1.51668603
H        3.71941224       0.48495627       2.78968965
H        3.13416846       2.02780286       3.41621286
H        2.17149905       0.56198670       3.64343098
H        2.28441924       2.48078777      -0.06880583
H        3.70161067       1.46703923       0.28454822
H        3.40047162       2.93623099       1.22222586
H        0.41358870       0.53796249       2.39902251
H        0.44639352       1.69681202      -0.40524233
H        0.04146187      -0.63956522      -0.70786284
H       -1.51728895       2.99157866      -0.63152000
H       -3.89862476       3.40910046      -0.23040952
H       -5.18013589       1.95105285       1.31915535
H       -4.03554855       0.06678481       2.45248746
H       -1.66283093      -0.37418518       2.03993162
C        2.42685832      -1.26885261      -1.38232409
C        1.15075693      -1.86958580      -1.93046076
N       -0.12282442      -1.44077150      -1.23707203
C       -0.63326645      -2.49647967      -0.29134084
C        0.35451753      -2.93442127       0.76725415
C       -1.20839780      -1.09142930      -2.22012295
C       -0.90128743       0.09413382      -3.10926231
H        3.26754950      -1.69513469      -1.93395400
H        2.56959256      -1.49060293      -0.32592561
H        2.44203246      -0.18998947      -1.52863737
H        1.15680434      -2.95567203      -1.87158116
H        1.03213594      -1.61479165      -2.97753866
H       -0.91056475      -3.32464957      -0.94042940
H       -1.54335746      -2.09514537       0.14957578
H        0.66149398      -2.10487472       1.40074453
H        1.24056458      -3.41063184       0.34851063
H       -0.13981318      -3.67483069       1.39677377
H       -1.34819063      -2.00029379      -2.79730011
H       -2.10576895      -0.91264342      -1.63284852
H       -0.79099229       1.01036500      -2.53350391
H       -0.01998546      -0.04799926      -3.73371322
H       -1.74893869       0.22650707      -3.78128840
47
Properties=species:S:1:pos:R:3 charge=1 spin=1 pbc="F F F"
C        2.82214505       1.08942685       2.94772284
N        2.14014587       1.33550629       1.69184670
C        2.91480969       2.08760278       0.72535352
C        0.86755178       0.95797959       1.50842982
C        0.05571636       1.13481439       0.43846878
C       -1.41090124       1.24628931       0.63297851
C       -2.07173854       2.31827161       0.01591502
C       -3.41414152       2.56951867       0.25730629
C       -4.13219448       1.75975088       1.12810321
C       -3.48897387       0.70352732       1.76342043
C       -2.14566128       0.44844812       1.51587238
H        3.71911806       0.48662513       2.79010403
H        3.13275343       2.02953408       3.41539309
H        2.17087779       0.56326286       3.64321495
H        2.28391477       2.48014994      -0.06991259
H        3.70090763       1.46607983       0.28323656
H        3.40047918       2.93558747       1.22068969
H        0.41280580       0.53936948       2.39901094
H        0.44607275       1.69488598      -0.40660119
H        0.03961608      -0.64258963      -0.70565439
H       -1.51764124       2.99108026      -0.63201488
H       -3.89888640       3.40883823      -0.23048345
H       -5.18031305       1.95077877       1.31912162
H       -4.03586665       0.06610655       2.45189997
H       -1.66324672      -0.37521236       2.03876891
C        2.42466300      -1.25496081      -1.38782316
C        1.15288962      -1.87291294      -1.92521578
N       -0.12285596      -1.44370803      -1.23556123
C       -0.63436300      -2.49968609      -0.29078260
C        0.34996488      -2.92947359       0.77422193
C       -1.20594879      -1.09392571      -2.22103159
C       -0.89407447       0.08953750      -3.11125989
H        3.26824479      -1.68323280      -1.93331004
H        2.56869060      -1.45996128      -0.32850333
H        2.43197062      -0.17873171      -1.55009477
H        1.16806003      -2.95729965      -1.85024422
H        1.03036858      -1.63509527      -2.97546608
H       -0.90389332      -3.33061920      -0.93944309
H       -1.54874827      -2.10185300       0.14419331
H        0.64725017      -2.09675761       1.40792780
H        1.24187517      -3.39978313       0.36163091
H       -0.14267785      -3.67235509       1.40210652
H       -1.34649823      -2.00336685      -2.79709732
H       -2.10404666      -0.91225276      -1.63578560
H       -0.78522696       1.00679976      -2.53687321
H       -0.01009109      -0.05491499      -3.73136068
H       -1.73856205       0.22143716      -3.78727858
47
Properties=species:S:1:pos:R:3 charge=1 spin=1 pbc="F F F"
C        2.82144287       1.09066907       2.94740409
N        2.13976641       1.33542796       1.69108046
C        2.91444260       2.08697616       0.72415494
C        0.86700034       0.95823620       1.50798874
C        0.05529318       1.13401184       0.43778987
C       -1.41132027       1.24563094       0.63227173
C       -2.07208796       2.31777000       0.01541357
C       -3.41441836       2.56914306       0.25705052
C       -4.13242962       1.75935127       1.12787144
C       -3.48928757       0.70290769       1.76289024
C       -2.14605116       0.44766582       1.51505873
H        3.71882389       0.48829399       2.79051842
H        3.13133840       2.03126529       3.41457331
H        2.17025652       0.56453902       3.64299892
H        2.28341029       2.47951211      -0.07101935
H        3.70020458       1.46512044       0.28192491
H        3.40048675       2.93494395       1.21915352
H        0.41202289       0.54077646       2.39899937
H        0.44575197       1.69295994      -0.40796005
H        0.03777030      -0.64561403      -0.70344594
H       -1.51799353       2.99058186      -0.63250976
H       -3.89914804       3.40857599      -0.23055738
H       -5.18049020       1.95050468       1.31908790
H       -4.03618475       0.06542829       2.45131249
H       -1.66366250      -0.37623954       2.03760620
C        2.42246769      -1.24106901      -1.39332224
C        1.15502231      -1.87624009      -1.91997080
N       -0.12288749      -1.44664456      -1.23405042
C       -0.63545956      -2.50289250      -0.29022437
C        0.34541223      -2.92452591       0.78118971
C       -1.20349978      -1.09642212      -2.22194023
C       -0.88686151       0.08494117      -3.11325747
H        3.26894008      -1.67133092      -1.93266608
H        2.56778863      -1.42931963      -0.33108106
H        2.42190878      -0.16747395      -1.57155217
H        1.17931572      -2.95892727      -1.82890728
H        1.02860121      -1.65539890      -2.97339351
H       -0.89722190      -3.33658882      -0.93845677
H       -1.55413908      -2.10856062       0.13881083
H        0.63300636      -2.08864050       1.41511107
H        1.24318576      -3.38893442       0.37475120
H       -0.14554252      -3.66987948       1.40743928
H       -1.34480583      -2.00643991      -2.79689452
H       -2.10232437      -0.91186210      -1.63872267
H       -0.77946163       1.00323452      -2.54024250
H       -0.00019671      -0.06183071      -3.72900814
H       -1.72818541       0.21636725      -3.79326876
47
Properties=species:S:1:pos:R:3 charge=1 spin=1 pbc="F F F"
C        2.82074069       1.09191129       2.94708534
N        2.13938695       1.33534963       1.69031422
C        2.91407551       2.08634954       0.72295636
C        0.86644890       0.95849281       1.50754766
C        0.05487000       1.13320929       0.43711096
C       -1.41173930       1.24497257       0.63156495
C       -2.07243738       2.31726839       0.01491212
C       -3.41469520       2.56876745       0.25679475
C       -4.13266476       1.75895166       1.12763967
C       -3.48960127       0.70228806       1.76236005
C       -2.14644104       0.44688352       1.51424508
H        3.71852972       0.48996285       2.79093281
H        3.12992337       2.03299650       3.41375353
H        2.16963525       0.56581518       3.64278289
H        2.28290581       2.47887428      -0.07212611
H        3.69950153       1.46416105       0.28061326
H        3.40049432       2.93430043       1.21761735
H        0.41123998       0.54218344       2.39898780
H        0.44543119       1.69103390      -0.40931891
H        0.03592452      -0.64863843      -0.70123749
H       -1.51834582       2.99008346      -0.63300464
H       -3.89940968       3.40831375      -0.23063131
H       -5.18066735       1.95023059       1.31905418
H       -4.03650285       0.06475003       2.45072501
H       -1.66407828      -0.37726672       2.03644349
C        2.42027238      -1.22717721      -1.39882132
C        1.15715500      -1.87956724      -1.91472582
N       -0.12291902      -1.44958109      -1.23253961
C       -0.63655612      -2.50609891      -0.28966614
C        0.34085958      -2.91957823       0.78815749
C       -1.20105077      -1.09891853      -2.22284887
C       -0.87964855       0.08034484      -3.11525505
H        3.26963537      -1.65942904      -1.93202212
H        2.56688666      -1.39867798      -0.33365879
H        2.41184694      -0.15621619      -1.59300957
H        1.19057141      -2.96055489      -1.80757034
H        1.02683384      -1.67570253      -2.97132094
H       -0.89055048      -3.34255844      -0.93747045
H       -1.55952989      -2.11526824       0.13342835
H        0.61876255      -2.08052339       1.42229434
H        1.24449635      -3.37808571       0.38787149
H       -0.14840719      -3.66740387       1.41277204
H       -1.34311343      -2.00951297      -2.79669172
H       -2.10060208      -0.91147144      -1.64165974
H       -0.77369630       0.99966928      -2.54361179
H        0.00969767      -0.06874643      -3.72665560
H       -1.71780877       0.21129734      -3.79925894
47
Properties=species:S:1:pos:R:3 charge=1 spin=1 pbc="F F F"
C        2.82003851       1.09315350       2.94676658
N        2.13900750       1.33527130       1.68954798
C        2.91370842       2.08572292       0.72175779
C        0.86589747       0.95874942       1.50710658
C        0.05444682       1.13240674       0.43643204
C       -1.41215832       1.24431421       0.63085817
C       -2.07278679       2.31676678       0.01441067
C       -3.41497204       2.56839184       0.25653898
C       -4.13289989       1.75855206       1.12740789
C       -3.48991497       0.70166842       1.76182986
C       -2.14683092       0.44610122       1.51343143
H        3.71823554       0.49163171       2.79134719
H        3.12850834       2.03472772       3.41293376
H        2.16901399       0.56709134       3.64256686
H        2.28240134       2.47823645      -0.07323287
H        3.69879849       1.46320165       0.27930160
H        3.40050188       2.93365691       1.21608118
H        0.41045708       0.54359043       2.39897623
H        0.44511042       1.68910786      -0.41067777
H        0.03407873      -0.65166284      -0.69902904
H       -1.51869811       2.98958506      -0.63349952
H       -3.89967132       3.40805152      -0.23070524
H       -5.18084451       1.94995651       1.31902045
H       -4.03682095       0.06407177       2.45013752
H       -1.66449407      -0.37829390       2.03528078
C        2.41807706      -1.21328541      -1.40432039
C        1.15928769      -1.88289438      -1.90948084
N       -0.12295056      -1.45251762      -1.23102881
C       -0.63765267      -2.50930533      -0.28910790
C        0.33630693      -2.91463055       0.79512527
C       -1.19860176      -1.10141494      -2.22375751
C       -0.87243559       0.07574852      -3.11725263
H        3.27033066      -1.64752715      -1.93137816
H        2.56598470      -1.36803633      -0.33623651
H        2.40178510      -0.14495843      -1.61446697
H        1.20182710      -2.96218251      -1.78623340
H        1.02506648      -1.69600615      -2.96924836
H       -0.88387905      -3.34852807      -0.93648414
H       -1.56492070      -2.12197587       0.12804588
H        0.60451874      -2.07240628       1.42947761
H        1.24580694      -3.36723700       0.40099177
H       -0.15127186      -3.66492827       1.41810479
H       -1.34142103      -2.01258603      -2.79648893
H       -2.09887979      -0.91108078      -1.64459682
H       -0.76793097       0.99610404      -2.54698109
H        0.01959204      -0.07566216      -3.72430306
H       -1.70743213       0.20622743      -3.80524912
47
Properties=species:S:1:pos:R:3 charge=1 spin=1 pbc="F F F"
C        2.81933632       1.09439572       2.94644783
N        2.13862804       1.33519297       1.68878174
C        2.91334133       2.08509631       0.72055921
C        0.86534603       0.95900603       1.50666550
C        0.05402363       1.13160419       0.43575313
C       -1.41257735       1.24365584       0.63015139
C       -2.07313621       2.31626517       0.01390922
C       -3.41524888       2.56801623       0.25628321
C       -4.13313503       1.75815245       1.12717612
C       -3.49022866       0.70104879       1.76129967
C       -2.14722080       0.44531892       1.51261778
H        3.71794137       0.49330057       2.79176158
H        3.12709330       2.03645893       3.41211398
H        2.16839272       0.56836750       3.64235083
H        2.28189686       2.47759862      -0.07433964
H        3.69809544       1.46224226       0.27798995
H        3.40050945       2.93301339       1.21454500
H        0.40967417       0.54499741       2.39896465
H        0.44478964       1.68718182      -0.41203662
H        0.03223295      -0.65468724      -0.69682059
H       -1.51905040       2.98908666      -0.63399440
H       -3.89993296       3.40778928      -0.23077918
H       -5.18102166       1.94968242       1.31898673
H       -4.03713906       0.06339351       2.44955004
H       -1.66490985      -0.37932108       2.03411807
C        2.41588175      -1.19939362      -1.40981947
C        1.16142038      -1.88622153      -1.90423586
N       -0.12298209      -1.45545415      -1.22951800
C       -0.63874923      -2.51251174      -0.28854967
C        0.33175427      -2.90968287       0.80209305
C       -1.19615275      -1.10391134      -2.22466615
C       -0.86522264       0.07115219      -3.11925021
H        3.27102594      -1.63562527      -1.93073420
H        2.56508273      -1.33739468      -0.33881424
H        2.39172327      -0.13370067      -1.63592437
H        1.21308279      -2.96381013      -1.76489646
H        1.02329911      -1.71630978      -2.96717579
H       -0.87720763      -3.35449769      -0.93549782
H       -1.57031151      -2.12868349       0.12266340
H        0.59027493      -2.06428916       1.43666088
H        1.24711752      -3.35638828       0.41411206
H       -0.15413653      -3.66245266       1.42343755
H       -1.33972863      -2.01565909      -2.79628613
H       -2.09715749      -0.91069011      -1.64753389
H       -0.76216564       0.99253880      -2.55035038
H        0.02948642      -0.08257788      -3.72195053
H       -1.69705549       0.20115752      -3.81123930
47
Properties=species:S:1:pos:R:3 charge=1 spin=1 pbc="F F F"
C        2.81863414       1.09563794       2.94612907
N        2.13824859       1.33511464       1.68801549
C        2.91297424       2.08446969       0.71936063
C        0.86479459       0.95926264       1.50622442
C        0.05360045       1.13080164       0.43507421
C       -1.41299638       1.24299748       0.62944462
C       -2.07348562       2.31576356       0.01340777
C       -3.41552572       2.56764062       0.25602744
C       -4.13337017       1.75775284       1.12694434
C       -3.49054236       0.70042916       1.76076948
C       -2.14761068       0.44453661       1.51180412
H        3.71764720       0.49496943       2.79217596
H        3.12567827       2.03819015       3.41129421
H        2.16777146       0.56964366       3.64213481
H        2.28139238       2.47696079      -0.07544640
H        3.69739240       1.46128286       0.27667829
H        3.40051701       2.93236986       1.21300883
H        0.40889126       0.54640440       2.39895308
H        0.44446886       1.68525578      -0.41339548
H        0.03038717      -0.65771165      -0.69461214
H       -1.51940269       2.98858826      -0.63448928
H       -3.90019460       3.40752704      -0.23085311
H       -5.18119882       1.94940834       1.31895300
H       -4.03745716       0.06271524       2.44896255
H       -1.66532563      -0.38034825       2.03295537
C        2.41368644      -1.18550182      -1.41531854
C        1.16355307      -1.88954868      -1.89899088
N       -0.12301362      -1.45839068      -1.22800720
C       -0.63984578      -2.51571815      -0.28799144
C        0.32720162      -2.90473519       0.80906083
C       -1.19370374      -1.10640775      -2.22557479
C       -0.85800968       0.06655587      -3.12124779
H        3.27172123      -1.62372339      -1.93009024
H        2.56418077      -1.30675303      -0.34139197
H        2.38166143      -0.12244291      -1.65738178
H        1.22433847      -2.96543775      -1.74355952
H        1.02153175      -1.73661341      -2.96510322
H       -0.87053620      -3.36046731      -0.93451150
H       -1.57570231      -2.13539112       0.11728093
H        0.57603112      -2.05617205       1.44384415
H        1.24842811      -3.34553957       0.42723235
H       -0.15700119      -3.65997705       1.42877030
H       -1.33803622      -2.01873215      -2.79608334
H       -2.09543520      -0.91029945      -1.65047096
H       -0.75640031       0.98897356      -2.55371967
H        0.03938080      -0.08949360      -3.71959799
H       -1.68667886       0.19608760      -3.81722948
47
Properties=species:S:1:pos:R:3 charge=1 spin=1 pbc="F F F"
C        2.81793196       1.09688015       2.94581032
N        2.13786913       1.33503631       1.68724925
C        2.91260715       2.08384307       0.71816206
C        0.86424316       0.95951925       1.50578335
C        0.05317727       1.12999908       0.43439530
C       -1.41341541       1.24233911       0.62873784
C       -2.07383504       2.31526195       0.01290632
C       -3.41580256       2.56726501       0.25577167
C       -4.13360530       1.75735323       1.12671257
C       -3.49085606       0.69980953       1.76023928
C       -2.14800056       0.44375431       1.51099047
H        3.71735302       0.49663829       2.79259035
H        3.12426324       2.03992136       3.41047443
H        2.16715019       0.57091982       3.64191878
H        2.28088791       2.47632296      -0.07655316
H        3.69668935       1.46032347       0.27536664
H        3.40052458       2.93172634       1.21147266
H        0.40810835       0.54781138       2.39894151
H        0.44414809       1.68332974      -0.41475434
H        0.02854138      -0.66073605      -0.69240369
H       -1.51975498       2.98808986      -0.63498416
H       -3.90045624       3.40726481      -0.23092704
H       -5.18137597       1.94913425       1.31891928
H       -4.03777526       0.06203698       2.44837507
H       -1.66574141      -0.38137543       2.03179266
C        2.41149112      -1.17161002      -1.42081762
C        1.16568576      -1.89287582      -1.89374590
N       -0.12304516      -1.46132722      -1.22649639
C       -0.64094234      -2.51892456      -0.28743320
C        0.32264897      -2.89978752       0.81602861
C       -1.19125472      -1.10890416      -2.22648343
C       -0.85079672       0.06195954      -3.12324538
H        3.27241652      -1.61182150      -1.92944629
H        2.56327880      -1.27611138      -0.34396970
H        2.37159959      -0.11118515      -1.67883918
H        1.23559416      -2.96706537      -1.72222257
H        1.01976438      -1.75691704      -2.96303064
H       -0.86386478      -3.36643693      -0.93352518
H       -1.58109312      -2.14209874       0.11189845
H        0.56178731      -2.04805494       1.45102742
H        1.24973870      -3.33469086       0.44035264
H       -0.15986586      -3.65750144       1.43410306
H       -1.33634382      -2.02180521      -2.79588054
H       -2.09371291      -0.90990879      -1.65340804
H       -0.75063499       0.98540832      -2.55708896
H        0.04927518      -0.09640932      -3.71724545
H       -1.67630222       0.19101769      -3.82321966
47
Properties=species:S:1:pos:R:3 charge=1 spin=1 pbc="F F F"
C        2.81722978       1.09812237       2.94549157
N        2.13748968       1.33495797       1.68648301
C        2.91224006       2.08321645       0.71696348
C        0.86369172       0.95977586       1.50534227
C        0.05275409       1.12919653       0.43371638
C       -1.41383443       1.24168074       0.62803106
C       -2.07418446       2.31476034       0.01240487
C       -3.41607940       2.56688940       0.25551590
C       -4.13384044       1.75695363       1.12648079
C       -3.49116976       0.69918989       1.75970909
C       -2.14839044       0.44297201       1.51017682
H        3.71705885       0.49830715       2.79300473
H        3.12284821       2.04165258       3.40965466
H        2.16652892       0.57219598       3.64170275
H        2.28038343       2.47568513      -0.07765992
H        3.69598630       1.45936407       0.27405498
H        3.40053215       2.93108282       1.20993649
H        0.40732545       0.54921837       2.39892994
H        0.44382731       1.68140370      -0.41611320
H        0.02669560      -0.66376045      -0.69019524
H       -1.52010727       2.98759146      -0.63547904
H       -3.90071788       3.40700257      -0.23100097
H       -5.18155313       1.94886017       1.31888555
H       -4.03809336       0.06135872       2.44778758
H       -1.66615720      -0.38240261       2.03062995
C        2.40929581      -1.15771822      -1.42631669
C        1.16781845      -1.89620297      -1.88850092
N       -0.12307669      -1.46426375      -1.22498559
C       -0.64203889      -2.52213098      -0.28687497
C        0.31809632      -2.89483984       0.82299640
C       -1.18880571      -1.11140057      -2.22739207
C       -0.84358376       0.05736322      -3.12524296
H        3.27311181      -1.59991962      -1.92880233
H        2.56237684      -1.24546972      -0.34654742
H        2.36153775      -0.09992739      -1.70029658
H        1.24684985      -2.96869299      -1.70088563
H        1.01799701      -1.77722066      -2.96095807
H       -0.85719335      -3.37240656      -0.93253887
H       -1.58648393      -2.14880636       0.10651598
H        0.54754350      -2.03993783       1.45821069
H        1.25104929      -3.32384215       0.45347292
H       -0.16273053      -3.65502584       1.43943581
H       -1.33465142      -2.02487826      -2.79567774
H       -2.09199062      -0.90951813      -1.65634511
H       -0.74486966       0.98184308      -2.56045826
H        0.05916955      -0.10332505      -3.71489291
H       -1.66592558       0.18594778      -3.82920984
47
Properties=species:S:1:pos:R:3 charge=1 spin=1 pbc="F F F"
C        2.81652760       1.09936458       2.94517281
N        2.13711022       1.33487964       1.68571677
C        2.91187297       2.08258983       0.71576491
C        0.86314028       0.96003247       1.50490119
C        0.05233091       1.12839398       0.43303747
C       -1.41425346       1.24102238       0.62732428
C       -2.07453387       2.31425873       0.01190342
C       -3.41635624       2.56651379       0.25526013
C       -4.13407558       1.75655402       1.12624902
C       -3.49148346       0.69857026       1.75917890
C       -2.14878032       0.44218971       1.50936317
H        3.71676468       0.49997601       2.79341912
H        3.12143318       2.04338379       3.40883488
H        2.16590766       0.57347214       3.64148672
H        2.27987896       2.47504730      -0.07876669
H        3.69528326       1.45840468       0.27274333
H        3.40053971       2.93043930       1.20840032
H        0.40654254       0.55062535       2.39891836
H        0.44350653       1.67947766      -0.41747205
H        0.02484982      -0.66678486      -0.68798679
H       -1.52045956       2.98709306      -0.63597392
H       -3.90097952       3.40674033      -0.23107491
H       -5.18173028       1.94858608       1.31885183
H       -4.03841146       0.06068046       2.44720010
H       -1.66657298      -0.38342979       2.02946724
C        2.40710050      -1.14382643      -1.43181577
C        1.16995114      -1.89953012      -1.88325594
N       -0.12310822      -1.46720028      -1.22347478
C       -0.64313545      -2.52533739      -0.28631673
C        0.31354367      -2.88989216       0.82996418
C       -1.18635670      -1.11389698      -2.22830071
C       -0.83637080       0.05276689      -3.12724054
H        3.27380710      -1.58801774      -1.92815837
H        2.56147487      -1.21482807      -0.34912515
H        2.35147592      -0.08866963      -1.72175398
H        1.25810554      -2.97032061      -1.67954869
H        1.01622965      -1.79752429      -2.95888550
H       -0.85052193      -3.37837618      -0.93155255
H       -1.59187474      -2.15551399       0.10113350
H        0.53329969      -2.03182072       1.46539396
H        1.25235988      -3.31299344       0.46659321
H       -0.16559520      -3.65255023       1.44476857
H       -1.33295902      -2.02795132      -2.79547495
H       -2.09026832      -0.90912746      -1.65928218
H       -0.73910433       0.97827784      -2.56382755
H        0.06906393      -0.11024077      -3.71254037
H       -1.65554894       0.18087787      -3.83520002
47
Properties=species:S:1:pos:R:3 charge=1 spin=1 pbc="F F F"
C        2.81582541       1.10060680       2.94485406
N        2.13673076       1.33480131       1.68495053
C        2.91150587       2.08196322       0.71456633
C        0.86258885       0.96028908       1.50446011
C        0.05190772       1.12759143       0.43235855
C       -1.41467249       1.24036401       0.62661750
C       -2.07488329       2.31375712       0.01140197
C       -3.41663308       2.56613818       0.25500436
C       -4.13431071       1.75615441       1.12601724
C       -3.49179716       0.69795063       1.75864871
C       -2.14917021       0.44140741       1.50854952
H        3.71647050       0.50164487       2.79383351
H        3.12001814       2.04511501       3.40801511
H        2.16528639       0.57474830       3.64127069
H        2.27937448       2.47440947      -0.07987345
H        3.69458021       1.45744528       0.27143168
H        3.40054728       2.92979578       1.20686414
H        0.40575963       0.55203234       2.39890679
H        0.44318576       1.67755162      -0.41883091
H        0.02300403      -0.66980926      -0.68577834
H       -1.52081185       2.98659466      -0.63646880
H       -3.90124116       3.40647810      -0.23114884
H       -5.18190744       1.94831200       1.31881811
H       -4.03872957       0.06000220       2.44661262
H       -1.66698876      -0.38445697       2.02830453
C        2.40490519      -1.12993463      -1.43731484
C        1.17208383      -1.90285726      -1.87801096
N       -0.12313975      -1.47013681      -1.22196398
C       -0.64423200      -2.52854380      -0.28575850
C        0.30899101      -2.88494448       0.83693196
C       -1.18390769      -1.11639338      -2.22920936
C       -0.82915785       0.04817057      -3.12923812
H        3.27450238      -1.57611585      -1.92751441
H        2.56057291      -1.18418642      -0.35170288
H        2.34141408      -0.07741187      -1.74321138
H        1.26936123      -2.97194823      -1.65821175
H        1.01446228      -1.81782792      -2.95681292
H       -0.84385050      -3.38434580      -0.93056623
H       -1.59726555      -2.16222161       0.09575103
H        0.51905588      -2.02370361       1.47257723
H        1.25367046      -3.30214472       0.47971350
H       -0.16845987      -3.65007462       1.45010132
H       -1.33126662      -2.03102438      -2.79527215
H       -2.08854603      -0.90873680      -1.66221926
H       -0.73333900       0.97471260      -2.56719684
H        0.07895831      -0.11715649      -3.71018784
H       -1.64517230       0.17580796      -3.84119020
47
Properties=species:S:1:pos:R:3 charge=1 spin=1 pbc="F F F"
C        2.81512323       1.10184902       2.94453530
N        2.13635131       1.33472298       1.68418429
C        2.91113878       2.08133660       0.71336775
C        0.86203741       0.96054569       1.50401903
C        0.05148454       1.12678888       0.43167964
C       -1.41509151       1.23970564       0.62591072
C       -2.07523271       2.31325551       0.01090052
C       -3.41690992       2.56576257       0.25474859
C       -4.13454585       1.75575480       1.12578547
C       -3.49211085       0.69733100       1.75811852
C       -2.14956009       0.44062511       1.50773587
H        3.71617633       0.50331373       2.79424789
H        3.11860311       2.04684622       3.40719533
H        2.16466513       0.57602446       3.64105466
H        2.27887000       2.47377164      -0.08098021
H        3.69387717       1.45648589       0.27012002
H        3.40055485       2.92915226       1.20532797
H        0.40497672       0.55343932       2.39889522
H        0.44286498       1.67562558      -0.42018977
H        0.02115825      -0.67283367      -0.68356989
H       -1.52116414       2.98609626      -0.63696368
H       -3.90150281       3.40621586      -0.23122277
H       -5.18208459       1.94803791       1.31878438
H       -4.03904767       0.05932394       2.44602513
H       -1.66740455      -0.38548415       2.02714182
C        2.40270987      -1.11604283      -1.44281392
C        1.17421652      -1.90618441      -1.87276598
N       -0.12317129      -1.47307334      -1.22045317
C       -0.64532856      -2.53175022      -0.28520027
C        0.30443836      -2.87999680       0.84389974
C       -1.18145868      -1.11888979      -2.23011800
C       -0.82194489       0.04357424      -3.13123570
H        3.27519767      -1.56421397      -1.92687045
H        2.55967094      -1.15354477      -0.35428060
H        2.33135224      -0.06615411      -1.76466878
H        1.28061692      -2.97357585      -1.63687481
H        1.01269491      -1.83813154      -2.95474035
H       -0.83717908      -3.39031543      -0.92957991
H       -1.60265636      -2.16892924       0.09036855
H        0.50481207      -2.01558649       1.47976050
H        1.25498105      -3.29129601       0.49283378
H       -0.17132454      -3.64759902       1.45543408
H       -1.32957422      -2.03409744      -2.79506936
H       -2.08682374      -0.90834614      -1.66515633
H       -0.72757367       0.97114736      -2.57056614
H        0.08885268      -0.12407222      -3.70783530
H       -1.63479566       0.17073805      -3.84718038
47
Properties=species:S:1:pos:R:3 charge=1 spin=1 pbc="F F F"
C        2.81442105       1.10309123       2.94421655
N        2.13597185       1.33464465       1.68341805
C        2.91077169       2.08070998       0.71216918
C        0.86148597       0.96080230       1.50357795
C        0.05106136       1.12598633       0.43100072
C       -1.41551054       1.23904728       0.62520395
C       -2.07558212       2.31275390       0.01039907
C       -3.41718676       2.56538696       0.25449282
C       -4.13478099       1.75535520       1.12555369
C       -3.49242455       0.69671136       1.75758833
C       -2.14994997       0.43984281       1.50692221
H        3.71588216       0.50498260       2.79466228
H        3.11718808       2.04857744       3.40637556
H        2.16404386       0.57730062       3.64083863
H        2.27836553       2.47313381      -0.08208697
H        3.69317412       1.45552649       0.26880837
H        3.40056241       2.92850873       1.20379180
H        0.40419382       0.55484631       2.39888365
H        0.44254420       1.67369954      -0.42154863
H        0.01931247      -0.67585807      -0.68136144
H       -1.52151643       2.98559786      -0.63745856
H       -3.90176445       3.40595362      -0.23129670
H       -5.18226175       1.94776383       1.31875066
H       -4.03936577       0.05864568       2.44543765
H       -1.66782033      -0.38651132       2.02597912
C        2.40051456      -1.10215103      -1.44831299
C        1.17634921      -1.90951156      -1.86752100
N       -0.12320282      -1.47600987      -1.21894237
C       -0.64642511      -2.53495663      -0.28464203
C        0.29988571      -2.87504912       0.85086752
C       -1.17900967      -1.12138620      -2.23102664
C       -0.81473193       0.03897792      -3.13323328
H        3.27589296      -1.55231209      -1.92622649
H        2.55876898      -1.12290312      -0.35685833
H        2.32129040      -0.05489635      -1.78612618
H        1.29187260      -2.97520347      -1.61553787
H        1.01092755      -1.85843517      -2.95266777
H       -0.83050765      -3.39628505      -0.92859360
H       -1.60804717      -2.17563686       0.08498607
H        0.49056825      -2.00746938       1.48694377
H        1.25629164      -3.28044730       0.50595407
H       -0.17418920      -3.64512341       1.46076683
H       -1.32788182      -2.03717050      -2.79486656
H       -2.08510145      -0.90795548      -1.66809340
H       -0.72180834       0.96758213      -2.57393543
H        0.09874706      -0.13098794      -3.70548276
H       -1.62441902       0.16566813      -3.85317056
47
Properties=species:S:1:pos:R:3 charge=1 spin=1 pbc="F F F"
C        2.81512323       1.10184902       2.94453530
N        2.13635131       1.33472298       1.68418429
C        2.91113878       2.08133660       0.71336775
C        0.86203741       0.96054569       1.50401903
C        0.05148454       1.12678888       0.43167964
C       -1.41509151       1.23970564       0.62591072
C       -2.07523271       2.31325551       0.01090052
C       -3.41690992       2.56576257       0.25474859
C       -4.13454585       1.75575480       1.12578547
C       -3.49211085       0.69733100       1.75811852
C       -2.14956009       0.44062511       1.50773587
H        3.71617633       0.50331373       2.79424789
H        3.11860311       2.04684622       3.40719533
H        2.16466513       0.57602446       3.64105466
H        2.27887000       2.47377164      -0.08098021
H        3.69387717       1.45648589       0.27012002
H        3.40055485       2.92915226       1.20532797
H        0.40497672       0.55343932       2.39889522
H        0.44286498       1.67562558      -0.42018977
H        0.02115825      -0.67283367      -0.68356989
H       -1.52116414       2.98609626      -0.63696368
H       -3.90150281       3.40621586      -0.23122277
H       -5.18208459       1.94803791       1.31878438
H       -4.03904767       0.05932394       2.44602513
H       -1.66740455      -0.38548415       2.02714182
C        2.40270987      -1.11604283      -1.44281392
C        1.17421652      -1.90618441      -1.87276598
N       -0.12317129      -1.47307334      -1.22045317
C       -0.64532856      -2.53175022      -0.28520027
C        0.30443836      -2.87999680       0.84389974
C       -1.18145868      -1.11888979      -2.23011800
C       -0.82194489       0.04357424      -3.13123570
H        3.27519767      -1.56421397      -1.92687045
H        2.55967094      -1.15354477      -0.35428060
H        2.33135224      -0.06615411      -1.76466878
H        1.28061692      -2.97357585      -1.63687481
H        1.01269491      -1.83813154      -2.95474035
H       -0.83717908      -3.39031543      -0.92957991
H       -1.60265636      -2.16892924       0.09036855
H        0.50481207      -2.01558649       1.47976050
H        1.25498105      -3.29129601       0.49283378
H       -0.17132454      -3.64759902       1.45543408
H       -1.32957422      -2.03409744      -2.79506936
H       -2.08682374      -0.90834614      -1.66515633
H       -0.72757367       0.97114736      -2.57056614
H        0.08885268      -0.12407222      -3.70783530
H       -1.63479566       0.17073805      -3.84718038
47
Properties=species:S:1:pos:R:3 charge=1 spin=1 pbc="F F F"
C        2.81582541       1.10060680       2.94485406
N        2.13673076       1.33480131       1.68495053
C        2.91150587       2.08196322       0.71456633
C        0.86258885       0.96028908       1.50446011
C        0.05190772       1.12759143       0.43235855
C       -1.41467249       1.24036401       0.62661750
C       -2.07488329       2.31375712       0.01140197
C       -3.41663308       2.56613818       0.25500436
C       -4.13431071       1.75615441       1.12601724
C       -3.49179716       0.69795063       1.75864871
C       -2.14917021       0.44140741       1.50854952
H        3.71647050       0.50164487       2.79383351
H        3.12001814       2.04511501       3.40801511
H        2.16528639       0.57474830       3.64127069
H        2.27937448       2.47440947      -0.07987345
H        3.69458021       1.45744528       0.27143168
H        3.40054728       2.92979578       1.20686414
H        0.40575963       0.55203234       2.39890679
H        0.44318576       1.67755162      -0.41883091
H        0.02300403      -0.66980926      -0.68577834
H       -1.52081185       2.98659466      -0.63646880
H       -3.90124116       3.40647810      -0.23114884
H       -5.18190744       1.94831200       1.31881811
H       -4.03872957       0.06000220       2.44661262
H       -1.66698876      -0.38445697       2.02830453
C        2.40490519      -1.12993463      -1.43731484
C        1.17208383      -1.90285726      -1.87801096
N       -0.12313975      -1.47013681      -1.22196398
C       -0.64423200      -2.52854380      -0.28575850
C        0.30899101      -2.88494448       0.83693196
C       -1.18390769      -1.11639338      -2.22920936
C       -0.82915785       0.04817057      -3.12923812
H        3.27450238      -1.57611585      -1.92751441
H        2.56057291      -1.18418642      -0.35170288
H        2.34141408      -0.07741187      -1.74321138
H        1.26936123      -2.97194823      -1.65821175
H        1.01446228      -1.81782792      -2.95681292
H       -0.84385050      -3.38434580      -0.93056623
H       -1.59726555      -2.16222161       0.09575103
H        0.51905588      -2.02370361       1.47257723
H        1.25367046      -3.30214472       0.47971350
H       -0.16845987      -3.65007462       1.45010132
H       -1.33126662      -2.03102438      -2.79527215
H       -2.08854603      -0.90873680      -1.66221926
H       -0.73333900       0.97471260      -2.56719684
H        0.07895831      -0.11715649      -3.71018784
H       -1.64517230       0.17580796      -3.84119020
47
Properties=species:S:1:pos:R:3 charge=1 spin=1 pbc="F F F"
C        2.81652760       1.09936458       2.94517281
N        2.13711022       1.33487964       1.68571677
C        2.91187297       2.08258983       0.71576491
C        0.86314028       0.96003247       1.50490119
C        0.05233091       1.12839398       0.43303747
C       -1.41425346       1.24102238       0.62732428
C       -2.07453387       2.31425873       0.01190342
C       -3.41635624       2.56651379       0.25526013
C       -4.13407558       1.75655402       1.12624902
C       -3.49148346       0.69857026       1.75917890
C       -2.14878032       0.44218971       1.50936317
H        3.71676468       0.49997601       2.79341912
H        3.12143318       2.04338379       3.40883488
H        2.16590766       0.57347214       3.64148672
H        2.27987896       2.47504730      -0.07876669
H        3.69528326       1.45840468       0.27274333
H        3.40053971       2.93043930       1.20840032
H        0.40654254       0.55062535       2.39891836
H        0.44350653       1.67947766      -0.41747205
H        0.02484982      -0.66678486      -0.68798679
H       -1.52045956       2.98709306      -0.63597392
H       -3.90097952       3.40674033      -0.23107491
H       -5.18173028       1.94858608       1.31885183
H       -4.03841146       0.06068046       2.44720010
H       -1.66657298      -0.38342979       2.02946724
C        2.40710050      -1.14382643      -1.43181577
C        1.16995114      -1.89953012      -1.88325594
N       -0.12310822      -1.46720028      -1.22347478
C       -0.64313545      -2.52533739      -0.28631673
C        0.31354367      -2.88989216       0.82996418
C       -1.18635670      -1.11389698      -2.22830071
C       -0.83637080       0.05276689      -3.12724054
H        3.27380710      -1.58801774      -1.92815837
H        2.56147487      -1.21482807      -0.34912515
H        2.35147592      -0.08866963      -1.72175398
H        1.25810554      -2.97032061      -1.67954869
H        1.01622965      -1.79752429      -2.95888550
H       -0.85052193      -3.37837618      -0.93155255
H       -1.59187474      -2.15551399       0.10113350
H        0.53329969      -2.03182072       1.46539396
H        1.25235988      -3.31299344       0.46659321
H       -0.16559520      -3.65255023       1.44476857
H       -1.33295902      -2.02795132      -2.79547495
H       -2.09026832      -0.90912746      -1.65928218
H       -0.73910433       0.97827784      -2.56382755
H        0.06906393      -0.11024077      -3.71254037
H       -1.65554894       0.18087787      -3.83520002
47
Properties=species:S:1:pos:R:3 charge=1 spin=1 pbc="F F F"
C        2.81722978       1.09812237       2.94549157
N        2.13748968       1.33495797       1.68648301
C        2.91224006       2.08321645       0.71696348
C        0.86369172       0.95977586       1.50534227
C        0.05275409       1.12919653       0.43371638
C       -1.41383443       1.24168074       0.62803106
C       -2.07418446       2.31476034       0.01240487
C       -3.41607940       2.56688940       0.25551590
C       -4.13384044       1.75695363       1.12648079
C       -3.49116976       0.69918989       1.75970909
C       -2.14839044       0.44297201       1.51017682
H        3.71705885       0.49830715       2.79300473
H        3.12284821       2.04165258       3.40965466
H        2.16652892       0.57219598       3.64170275
H        2.28038343       2.47568513      -0.07765992
H        3.69598630       1.45936407       0.27405498
H        3.40053215       2.93108282       1.20993649
H        0.40732545       0.54921837       2.39892994
H        0.44382731       1.68140370      -0.41611320
H        0.02669560      -0.66376045      -0.69019524
H       -1.52010727       2.98759146      -0.63547904
H       -3.90071788       3.40700257      -0.23100097
H       -5.18155313       1.94886017       1.31888555
H       -4.03809336       0.06135872       2.44778758
H       -1.66615720      -0.38240261       2.03062995
C        2.40929581      -1.15771822      -1.42631669
C        1.16781845      -1.89620297      -1.88850092
N       -0.12307669      -1.46426375      -1.22498559
C       -0.64203889      -2.52213098      -0.28687497
C        0.31809632      -2.89483984       0.82299640
C       -1.18880571      -1.11140057      -2.22739207
C       -0.84358376       0.05736322      -3.12524296
H        3.27311181      -1.59991962      -1.92880233
H        2.56237684      -1.24546972      -0.34654742
H        2.36153775      -0.09992739      -1.70029658
H        1.24684985      -2.96869299      -1.70088563
H        1.01799701      -1.77722066      -2.96095807
H       -0.85719335      -3.37240656      -0.93253887
H       -1.58648393      -2.14880636       0.10651598
H        0.54754350      -2.03993783       1.45821069
H        1.25104929      -3.32384215       0.45347292
H       -0.16273053      -3.65502584       1.43943581
H       -1.33465142      -2.02487826      -2.79567774
H       -2.09199062      -0.90951813      -1.65634511
H       -0.74486966       0.98184308      -2.56045826
H        0.05916955      -0.10332505      -3.71489291
H       -1.66592558       0.18594778      -3.82920984
47
Properties=species:S:1:pos:R:3 charge=1 spin=1 pbc="F F F"
C        2.81793196       1.09688015       2.94581032
N        2.13786913       1.33503631       1.68724925
C        2.91260715       2.08384307       0.71816206
C        0.86424316       0.95951925       1.50578335
C        0.05317727       1.12999908       0.43439530
C       -1.41341541       1.24233911       0.62873784
C       -2.07383504       2.31526195       0.01290632
C       -3.41580256       2.56726501       0.25577167
C       -4.13360530       1.75735323       1.12671257
C       -3.49085606       0.69980953       1.76023928
C       -2.14800056       0.44375431       1.51099047
H        3.71735302       0.49663829       2.79259035
H        3.12426324       2.03992136       3.41047443
H        2.16715019       0.57091982       3.64191878
H        2.28088791       2.47632296      -0.07655316
H        3.69668935       1.46032347       0.27536664
H        3.40052458       2.93172634       1.21147266
H        0.40810835       0.54781138       2.39894151
H        0.44414809       1.68332974      -0.41475434
H        0.02854138      -0.66073605      -0.69240369
H       -1.51975498       2.98808986      -0.63498416
H       -3.90045624       3.40726481      -0.23092704
H       -5.18137597       1.94913425       1.31891928
H       -4.03777526       0.06203698       2.44837507
H       -1.66574141      -0.38137543       2.03179266
C        2.41149112      -1.17161002      -1.42081762
C        1.16568576      -1.89287582      -1.89374590
N       -0.12304516      -1.46132722      -1.22649639
C       -0.64094234      -2.51892456      -0.28743320
C        0.32264897      -2.89978752       0.81602861
C       -1.19125472      -1.10890416      -2.22648343
C       -0.85079672       0.06195954      -3.12324538
H        3.27241652      -1.61182150      -1.92944629
H        2.56327880      -1.27611138      -0.34396970
H        2.37159959      -0.11118515      -1.67883918
H        1.23559416      -2.96706537      -1.72222257
H        1.01976438      -1.75691704      -2.96303064
H       -0.86386478      -3.36643693      -0.93352518
H       -1.58109312      -2.14209874       0.11189845
H        0.56178731      -2.04805494       1.45102742
H        1.24973870      -3.33469086       0.44035264
H       -0.15986586      -3.65750144       1.43410306
H       -1.33634382      -2.02180521      -2.79588054
H       -2.09371291      -0.90990879      -1.65340804
H       -0.75063499       0.98540832      -2.55708896
H        0.04927518      -0.09640932      -3.71724545
H       -1.67630222       0.19101769      -3.82321966
47
Properties=species:S:1:pos:R:3 charge=1 spin=1 pbc="F F F"
C        2.81863414       1.09563794       2.94612907
N        2.13824859       1.33511464       1.68801549
C        2.91297424       2.08446969       0.71936063
C        0.86479459       0.95926264       1.50622442
C        0.05360045       1.13080164       0.43507421
C       -1.41299638       1.24299748       0.62944462
C       -2.07348562       2.31576356       0.01340777
C       -3.41552572       2.56764062       0.25602744
C       -4.13337017       1.75775284       1.12694434
C       -3.49054236       0.70042916       1.76076948
C       -2.14761068       0.44453661       1.51180412
H        3.71764720       0.49496943       2.79217596
H        3.12567827       2.03819015       3.41129421
H        2.16777146       0.56964366       3.64213481
H        2.28139238       2.47696079      -0.07544640
H        3.69739240       1.46128286       0.27667829
H        3.40051701       2.93236986       1.21300883
H        0.40889126       0.54640440       2.39895308
H        0.44446886       1.68525578      -0.41339548
H        0.03038717      -0.65771165      -0.69461214
H       -1.51940269       2.98858826      -0.63448928
H       -3.90019460       3.40752704      -0.23085311
H       -5.18119882       1.94940834       1.31895300
H       -4.03745716       0.06271524       2.44896255
H       -1.66532563      -0.38034825       2.03295537
C        2.41368644      -1.18550182      -1.41531854
C        1.16355307      -1.88954868      -1.89899088
N       -0.12301362      -1.45839068      -1.22800720
C       -0.63984578      -2.51571815      -0.28799144
C        0.32720162      -2.90473519       0.80906083
C       -1.19370374      -1.10640775      -2.22557479
C       -0.85800968       0.06655587      -3.12124779
H        3.27172123      -1.62372339      -1.93009024
H        2.56418077      -1.30675303      -0.34139197
H        2.38166143      -0.12244291      -1.65738178
H        1.22433847      -2.96543775      -1.74355952
H        1.02153175      -1.73661341      -2.96510322
H       -0.87053620      -3.36046731      -0.93451150
H       -1.57570231      -2.13539112       0.11728093
H        0.57603112      -2.05617205       1.44384415
H        1.24842811      -3.34553957       0.42723235
H       -0.15700119      -3.65997705       1.42877030
H       -1.33803622      -2.01873215      -2.79608334
H       -2.09543520      -0.91029945      -1.65047096
H       -0.75640031       0.98897356      -2.55371967
H        0.03938080      -0.08949360      -3.71959799
H       -1.68667886       0.19608760      -3.81722948
47
Properties=species:S:1:pos:R:3 charge=1 spin=1 pbc="F F F"
C        2.81933632       1.09439572       2.94644783
N        2.13862804       1.33519297       1.68878174
C        2.91334133       2.08509631       0.72055921
C        0.86534603       0.95900603       1.50666550
C        0.05402363       1.13160419       0.43575313
C       -1.41257735       1.24365584       0.63015139
C       -2.07313621       2.31626517       0.01390922
C       -3.41524888       2.56801623       0.25628321
C       -4.13313503       1.75815245       1.12717612
C       -3.49022866       0.70104879       1.76129967
C       -2.14722080       0.44531892       1.51261778
H        3.71794137       0.49330057       2.79176158
H        3.12709330       2.03645893       3.41211398
H        2.16839272       0.56836750       3.64235083
H        2.28189686       2.47759862      -0.07433964
H        3.69809544       1.46224226       0.27798995
H        3.40050945       2.93301339       1.21454500
H        0.40967417       0.54499741       2.39896465
H        0.44478964       1.68718182      -0.41203662
H        0.03223295      -0.65468724      -0.69682059
H       -1.51905040       2.98908666      -0.63399440
H       -3.89993296       3.40778928      -0.23077918
H       -5.18102166       1.94968242       1.31898673
H       -4.03713906       0.06339351       2.44955004
H       -1.66490985      -0.37932108       2.03411807
C        2.41588175      -1.19939362      -1.40981947
C        1.16142038      -1.88622153      -1.90423586
N       -0.12298209      -1.45545415      -1.22951800
C       -0.63874923      -2.51251174      -0.28854967
C        0.33175427      -2.90968287       0.80209305
C       -1.19615275      -1.10391134      -2.22466615
C       -0.86522264       0.07115219      -3.11925021
H        3.27102594      -1.63562527      -1.93073420
H        2.56508273      -1.33739468      -0.33881424
H        2.39172327      -0.13370067      -1.63592437
H        1.21308279      -2.96381013      -1.76489646
H        1.02329911      -1.71630978      -2.96717579
H       -0.87720763      -3.35449769      -0.93549782
H       -1.57031151      -2.12868349       0.12266340
H        0.59027493      -2.06428916       1.43666088
H        1.24711752      -3.35638828       0.41411206
H       -0.15413653      -3.66245266       1.42343755
H       -1.33972863      -2.01565909      -2.79628613
H       -2.09715749      -0.91069011      -1.64753389
H       -0.76216564       0.99253880      -2.55035038
H        0.02948642      -0.08257788      -3.72195053
H       -1.69705549       0.20115752      -3.81123930
47
Properties=species:S:1:pos:R:3 charge=1 spin=1 pbc="F F F"
C        2.82003851       1.09315350       2.94676658
N        2.13900750       1.33527130       1.68954798
C        2.91370842       2.08572292       0.72175779
C        0.86589747       0.95874942       1.50710658
C        0.05444682       1.13240674       0.43643204
C       -1.41215832       1.24431421       0.63085817
C       -2.07278679       2.31676678       0.01441067
C       -3.41497204       2.56839184       0.25653898
C       -4.13289989       1.75855206       1.12740789
C       -3.48991497       0.70166842       1.76182986
C       -2.14683092       0.44610122       1.51343143
H        3.71823554       0.49163171       2.79134719
H        3.12850834       2.03472772       3.41293376
H        2.16901399       0.56709134       3.64256686
H        2.28240134       2.47823645      -0.07323287
H        3.69879849       1.46320165       0.27930160
H        3.40050188       2.93365691       1.21608118
H        0.41045708       0.54359043       2.39897623
H        0.44511042       1.68910786      -0.41067777
H        0.03407873      -0.65166284      -0.69902904
H       -1.51869811       2.98958506      -0.63349952
H       -3.89967132       3.40805152      -0.23070524
H       -5.18084451       1.94995651       1.31902045
H       -4.03682095       0.06407177       2.45013752
H       -1.66449407      -0.37829390       2.03528078
C        2.41807706      -1.21328541      -1.40432039
C        1.15928769      -1.88289438      -1.90948084
N       -0.12295056      -1.45251762      -1.23102881
C       -0.63765267      -2.50930533      -0.28910790
C        0.33630693      -2.91463055       0.79512527
C       -1.19860176      -1.10141494      -2.22375751
C       -0.87243559       0.07574852      -3.11725263
H        3.27033066      -1.64752715      -1.93137816
H        2.56598470      -1.36803633      -0.33623651
H        2.40178510      -0.14495843      -1.61446697
H        1.20182710      -2.96218251      -1.78623340
H        1.02506648      -1.69600615      -2.96924836
H       -0.88387905      -3.34852807      -0.93648414
H       -1.56492070      -2.12197587       0.12804588
H        0.60451874      -2.07240628       1.42947761
H        1.24580694      -3.36723700       0.40099177
H       -0.15127186      -3.66492827       1.41810479
H       -1.34142103      -2.01258603      -2.79648893
H       -2.09887979      -0.91108078      -1.64459682
H       -0.76793097       0.99610404      -2.54698109
H        0.01959204      -0.07566216      -3.72430306
H       -1.70743213       0.20622743      -3.80524912
47
Properties=species:S:1:pos:R:3 charge=1 spin=1 pbc="F F F"
C        2.82074069       1.09191129       2.94708534
N        2.13938695       1.33534963       1.69031422
C        2.91407551       2.08634954       0.72295636
C        0.86644890       0.95849281       1.50754766
C        0.05487000       1.13320929       0.43711096
C       -1.41173930       1.24497257       0.63156495
C       -2.07243738       2.31726839       0.01491212
C       -3.41469520       2.56876745       0.25679475
C       -4.13266476       1.75895166       1.12763967
C       -3.48960127       0.70228806       1.76236005
C       -2.14644104       0.44688352       1.51424508
H        3.71852972       0.48996285       2.79093281
H        3.12992337       2.03299650       3.41375353
H        2.16963525       0.56581518       3.64278289
H        2.28290581       2.47887428      -0.07212611
H        3.69950153       1.46416105       0.28061326
H        3.40049432       2.93430043       1.21761735
H        0.41123998       0.54218344       2.39898780
H        0.44543119       1.69103390      -0.40931891
H        0.03592452      -0.64863843      -0.70123749
H       -1.51834582       2.99008346      -0.63300464
H       -3.89940968       3.40831375      -0.23063131
H       -5.18066735       1.95023059       1.31905418
H       -4.03650285       0.06475003       2.45072501
H       -1.66407828      -0.37726672       2.03644349
C        2.42027238      -1.22717721      -1.39882132
C        1.15715500      -1.87956724      -1.91472582
N       -0.12291902      -1.44958109      -1.23253961
C       -0.63655612      -2.50609891      -0.28966614
C        0.34085958      -2.91957823       0.78815749
C       -1.20105077      -1.09891853      -2.22284887
C       -0.87964855       0.08034484      -3.11525505
H        3.26963537      -1.65942904      -1.93202212
H        2.56688666      -1.39867798      -0.33365879
H        2.41184694      -0.15621619      -1.59300957
H        1.19057141      -2.96055489      -1.80757034
H        1.02683384      -1.67570253      -2.97132094
H       -0.89055048      -3.34255844      -0.93747045
H       -1.55952989      -2.11526824       0.13342835
H        0.61876255      -2.08052339       1.42229434
H        1.24449635      -3.37808571       0.38787149
H       -0.14840719      -3.66740387       1.41277204
H       -1.34311343      -2.00951297      -2.79669172
H       -2.10060208      -0.91147144      -1.64165974
H       -0.77369630       0.99966928      -2.54361179
H        0.00969767      -0.06874643      -3.72665560
H       -1.71780877       0.21129734      -3.79925894
47
Properties=species:S:1:pos:R:3 charge=1 spin=1 pbc="F F F"
C        2.82144287       1.09066907       2.94740409
N        2.13976641       1.33542796       1.69108046
C        2.91444260       2.08697616       0.72415494
C        0.86700034       0.95823620       1.50798874
C        0.05529318       1.13401184       0.43778987
C       -1.41132027       1.24563094       0.63227173
C       -2.07208796       2.31777000       0.01541357
C       -3.41441836       2.56914306       0.25705052
C       -4.13242962       1.75935127       1.12787144
C       -3.48928757       0.70290769       1.76289024
C       -2.14605116       0.44766582       1.51505873
H        3.71882389       0.48829399       2.79051842
H        3.13133840       2.03126529       3.41457331
H        2.17025652       0.56453902       3.64299892
H        2.28341029       2.47951211      -0.07101935
H        3.70020458       1.46512044       0.28192491
H        3.40048675       2.93494395       1.21915352
H        0.41202289       0.54077646       2.39899937
H        0.44575197       1.69295994      -0.40796005
H        0.03777030      -0.64561403      -0.70344594
H       -1.51799353       2.99058186      -0.63250976
H       -3.89914804       3.40857599      -0.23055738
H       -5.18049020       1.95050468       1.31908790
H       -4.03618475       0.06542829       2.45131249
H       -1.66366250      -0.37623954       2.03760620
C        2.42246769      -1.24106901      -1.39332224
C        1.15502231      -1.87624009      -1.91997080
N       -0.12288749      -1.44664456      -1.23405042
C       -0.63545956      -2.50289250      -0.29022437
C        0.34541223      -2.92452591       0.78118971
C       -1.20349978      -1.09642212      -2.22194023
C       -0.88686151       0.08494117      -3.11325747
H        3.26894008      -1.67133092      -1.93266608
H        2.56778863      -1.42931963      -0.33108106
H        2.42190878      -0.16747395      -1.57155217
H        1.17931572      -2.95892727      -1.82890728
H        1.02860121      -1.65539890      -2.97339351
H       -0.89722190      -3.33658882      -0.93845677
H       -1.55413908      -2.10856062       0.13881083
H        0.63300636      -2.08864050       1.41511107
H        1.24318576      -3.38893442       0.37475120
H       -0.14554252      -3.66987948       1.40743928
H       -1.34480583      -2.00643991      -2.79689452
H       -2.10232437      -0.91186210      -1.63872267
H       -0.77946163       1.00323452      -2.54024250
H       -0.00019671      -0.06183071      -3.72900814
H       -1.72818541       0.21636725      -3.79326876
