47
Properties=species:S:1:pos:R:3 charge=1 spin=1 pbc="F F F"
C        2.67750815       1.08490675       2.98763267
N        2.05021921       1.26717803       1.67857384
C        2.86084104       1.99706295       0.70934421
C        0.83164392       0.86124570       1.45704208
C        0.06128107       0.92344183       0.26120810
C       -1.39325836       1.22364076       0.54189628
C       -1.94344133       2.41049416       0.06864395
C       -3.25791624       2.74609263       0.35577671
C       -4.04008796       1.89910407       1.12415942
C       -3.50210637       0.71290108       1.60233966
C       -2.18788896       0.37621520       1.30987102
H        3.58004593       0.48531437       2.88493914
H        2.94370416       2.05751045       3.39899506
H        1.98590327       0.58909314       3.66215934
H        2.26028045       2.28926316      -0.14438814
H        3.68889859       1.37453054       0.37419427
H        3.25856754       2.88953722       1.19225403
H        0.35657774       0.40777649       2.32330492
H        0.47610811       1.58232804      -0.50189072
H        0.08816802      -0.23623004      -0.34904638
H       -1.33237384       3.09101422      -0.51174121
H       -3.66259203       3.67897507      -0.01164452
H       -5.06080634       2.16581309       1.35888263
H       -4.10731665       0.04764558       2.20388286
H       -1.77999806      -0.55142331       1.69700161
C        2.39484962      -1.13661520      -1.46210407
C        1.13726126      -1.85705757      -1.92473359
N       -0.10074235      -1.46205616      -1.19115077
C       -0.53507235      -2.53643135      -0.26109815
C        0.49485674      -2.89405182       0.79543037
C       -1.22047492      -1.19096504      -2.13605273
C       -1.00519069       0.01357945      -3.03519375
H        3.24922732      -1.51287442      -2.02729233
H        2.59344068      -1.29660779      -0.39961381
H        2.31830338      -0.06375702      -1.64947897
H        1.26987495      -2.93945069      -1.84167866
H        0.98879309      -1.66171121      -2.98565113
H       -0.79268612      -3.42961344      -0.84605260
H       -1.45768378      -2.19595046       0.21112571
H        0.74809106      -2.03090883       1.41383087
H        1.41337442      -3.28879937       0.35978557
H        0.08617639      -3.66339813       1.45047567
H       -1.39456755      -2.08994626      -2.74300251
H       -2.11613564      -1.03641639      -1.53217396
H       -0.93226411       0.93350000      -2.45620341
H       -0.11960533      -0.07928424      -3.66464252
H       -1.86315804       0.11221960      -3.70026620
47
Properties=species:S:1:pos:R:3 charge=1 spin=1 pbc="F F F"
C        2.67752968       1.08486001       2.98810257
N        2.04855417       1.26723668       1.67846218
C        2.86092585       1.99728119       0.70888290
C        0.83420234       0.86143654       1.45967315
C        0.06066864       0.92011155       0.25675704
C       -1.39395503       1.22470639       0.54249315
C       -1.94327208       2.41076473       0.06889406
C       -3.25802297       2.74618797       0.35580953
C       -4.03991287       1.89913398       1.12408493
C       -3.50199388       0.71281074       1.60226848
C       -2.18761598       0.37629440       1.31003049
H        3.57963975       0.48567230       2.88284423
H        2.94339750       2.05782804       3.39793802
H        1.98612904       0.58879982       3.66245516
H        2.26084076       2.28873768      -0.14514339
H        3.68805583       1.37320473       0.37558934
H        3.25777205       2.88900630       1.19313734
H        0.35867467       0.40419124       2.32355647
H        0.47465663       1.58805002      -0.49951143
H        0.09636961      -0.15986540      -0.29424001
H       -1.33281643       3.09098803      -0.51240264
H       -3.66277482       3.67880747      -0.01199014
H       -5.06068540       2.16573384       1.35879369
H       -4.10714447       0.04736031       2.20354158
H       -1.78023392      -0.55192520       1.69623477
C        2.39474255      -1.13670599      -1.46220487
C        1.13603683      -1.85743884      -1.92442835
N       -0.10109473      -1.46510993      -1.19332654
C       -0.53474827      -2.53599134      -0.26241887
C        0.49463517      -2.89406973       0.79535227
C       -1.21949472      -1.19182770      -2.13563165
C       -1.00532842       0.01343037      -3.03516405
H        3.25006410      -1.51214054      -2.02680957
H        2.59340955      -1.29700614      -0.39936339
H        2.31801339      -0.06350653      -1.64989491
H        1.27287532      -2.94035216      -1.84361865
H        0.99051765      -1.66232398      -2.98624322
H       -0.79357153      -3.43333856      -0.84296695
H       -1.45772398      -2.19691954       0.21108678
H        0.74850693      -2.03065318       1.41413346
H        1.41356206      -3.28820794       0.35983974
H        0.08680434      -3.66337972       1.45112157
H       -1.39829516      -2.08899840      -2.74622587
H       -2.11630963      -1.03667906      -1.53286416
H       -0.93188526       0.93374233      -2.45632635
H       -0.11944349      -0.07919564      -3.66436387
H       -1.86300312       0.11292851      -3.70064435
47
Properties=species:S:1:pos:R:3 charge=1 spin=1 pbc="F F F"
C        2.67755121       1.08481326       2.98857246
N        2.04688913       1.26729534       1.67835053
C        2.86101065       1.99749943       0.70842158
C        0.83676076       0.86162738       1.46230423
C        0.06005621       0.91678128       0.25230599
C       -1.39465171       1.22577203       0.54309002
C       -1.94310284       2.41103529       0.06914418
C       -3.25812971       2.74628331       0.35584235
C       -4.03973779       1.89916390       1.12401045
C       -3.50188139       0.71272041       1.60219729
C       -2.18734300       0.37637360       1.31018997
H        3.57923358       0.48603023       2.88074932
H        2.94309085       2.05814562       3.39688097
H        1.98635481       0.58850649       3.66275097
H        2.26140108       2.28821221      -0.14589864
H        3.68721307       1.37187891       0.37698442
H        3.25697656       2.88847537       1.19402065
H        0.36077161       0.40060598       2.32380803
H        0.47320516       1.59377199      -0.49713213
H        0.10457121      -0.08350075      -0.23943364
H       -1.33325903       3.09096185      -0.51306406
H       -3.66295761       3.67863988      -0.01233576
H       -5.06056445       2.16565458       1.35870476
H       -4.10697230       0.04707503       2.20320031
H       -1.78046978      -0.55242708       1.69546794
C        2.39463549      -1.13679679      -1.46230567
C        1.13481241      -1.85782012      -1.92412311
N       -0.10144711      -1.46816371      -1.19550231
C       -0.53442420      -2.53555134      -0.26373958
C        0.49441359      -2.89408764       0.79527416
C       -1.21851452      -1.19269036      -2.13521056
C       -1.00546615       0.01328128      -3.03513435
H        3.25090089      -1.51140665      -2.02632682
H        2.59337843      -1.29740448      -0.39911297
H        2.31772339      -0.06325603      -1.65031085
H        1.27587570      -2.94125362      -1.84555865
H        0.99224220      -1.66293674      -2.98683530
H       -0.79445693      -3.43706368      -0.83988131
H       -1.45776419      -2.19788863       0.21104785
H        0.74892281      -2.03039753       1.41443606
H        1.41374971      -3.28761650       0.35989390
H        0.08743228      -3.66336132       1.45176747
H       -1.40202277      -2.08805055      -2.74944923
H       -2.11648363      -1.03694173      -1.53355436
H       -0.93150642       0.93398465      -2.45644928
H       -0.11928166      -0.07910703      -3.66408522
H       -1.86284821       0.11363741      -3.70102251
47
Properties=species:S:1:pos:R:3 charge=1 spin=1 pbc="F F F"
C        2.67757274       1.08476652       2.98904236
N        2.04522409       1.26735399       1.67823888
C        2.86109545       1.99771767       0.70796027
C        0.83931918       0.86181821       1.46493531
C        0.05944378       0.91345100       0.24785493
C       -1.39534839       1.22683766       0.54368689
C       -1.94293359       2.41130585       0.06939430
C       -3.25823645       2.74637865       0.35587516
C       -4.03956270       1.89919381       1.12393597
C       -3.50176889       0.71263008       1.60212611
C       -2.18707002       0.37645279       1.31034944
H        3.57882741       0.48638816       2.87865441
H        2.94278420       2.05846320       3.39582392
H        1.98658058       0.58821317       3.66304678
H        2.26196139       2.28768673      -0.14665390
H        3.68637031       1.37055310       0.37837949
H        3.25618107       2.88794445       1.19490396
H        0.36286854       0.39702073       2.32405958
H        0.47175368       1.59949396      -0.49475284
H        0.11277280      -0.00713611      -0.18462727
H       -1.33370162       3.09093567      -0.51372549
H       -3.66314040       3.67847229      -0.01268138
H       -5.06044351       2.16557533       1.35861582
H       -4.10680013       0.04678976       2.20285903
H       -1.78070564      -0.55292897       1.69470110
C        2.39452842      -1.13688758      -1.46240647
C        1.13358799      -1.85820139      -1.92381787
N       -0.10179948      -1.47121749      -1.19767807
C       -0.53410012      -2.53511134      -0.26506029
C        0.49419201      -2.89410555       0.79519605
C       -1.21753431      -1.19355302      -2.13478948
C       -1.00560388       0.01313220      -3.03510465
H        3.25173768      -1.51067277      -2.02584406
H        2.59334730      -1.29780283      -0.39886255
H        2.31743339      -0.06300553      -1.65072680
H        1.27887607      -2.94215508      -1.84749865
H        0.99396676      -1.66354951      -2.98742739
H       -0.79534234      -3.44078880      -0.83679566
H       -1.45780440      -2.19885771       0.21100892
H        0.74933868      -2.03014188       1.41473865
H        1.41393735      -3.28702507       0.35994807
H        0.08806022      -3.66334291       1.45241338
H       -1.40575038      -2.08710269      -2.75267259
H       -2.11665762      -1.03720440      -1.53424457
H       -0.93112757       0.93422698      -2.45657222
H       -0.11911982      -0.07901843      -3.66380657
H       -1.86269329       0.11434632      -3.70140066
47
Properties=species:S:1:pos:R:3 charge=1 spin=1 pbc="F F F"
C        2.67759427       1.08471978       2.98951226
N        2.04355906       1.26741265       1.67812722
C        2.86118026       1.99793590       0.70749895
C        0.84187760       0.86200905       1.46756638
C        0.05883135       0.91012073       0.24340388
C       -1.39604507       1.22790329       0.54428375
C       -1.94276434       2.41157642       0.06964442
C       -3.25834319       2.74647399       0.35590798
C       -4.03938762       1.89922373       1.12386149
C       -3.50165640       0.71253974       1.60205493
C       -2.18679704       0.37653199       1.31050892
H        3.57842123       0.48674609       2.87655950
H        2.94247755       2.05878079       3.39476688
H        1.98680635       0.58791985       3.66334260
H        2.26252171       2.28716125      -0.14740915
H        3.68552755       1.36922728       0.37977456
H        3.25538557       2.88741352       1.19578727
H        0.36496547       0.39343547       2.32431113
H        0.47030221       1.60521594      -0.49237354
H        0.12097440       0.06922854      -0.12982091
H       -1.33414422       3.09090948      -0.51438691
H       -3.66332319       3.67830469      -0.01302700
H       -5.06032257       2.16549607       1.35852689
H       -4.10662796       0.04650448       2.20251775
H       -1.78094150      -0.55343085       1.69393427
C        2.39442135      -1.13697838      -1.46250727
C        1.13236356      -1.85858267      -1.92351263
N       -0.10215186      -1.47427127      -1.19985384
C       -0.53377605      -2.53467133      -0.26638100
C        0.49397043      -2.89412346       0.79511795
C       -1.21655411      -1.19441568      -2.13436840
C       -1.00574161       0.01298312      -3.03507495
H        3.25257447      -1.50993888      -2.02536130
H        2.59331618      -1.29820118      -0.39861213
H        2.31714340      -0.06275504      -1.65114274
H        1.28187645      -2.94305654      -1.84943865
H        0.99569131      -1.66416228      -2.98801947
H       -0.79622774      -3.44451392      -0.83371002
H       -1.45784460      -2.19982679       0.21096998
H        0.74975456      -2.02988622       1.41504124
H        1.41412499      -3.28643363       0.36000223
H        0.08868817      -3.66332451       1.45305928
H       -1.40947799      -2.08615483      -2.75589595
H       -2.11683162      -1.03746707      -1.53493477
H       -0.93074873       0.93446931      -2.45669516
H       -0.11895799      -0.07892982      -3.66352792
H       -1.86253838       0.11505522      -3.70177882
47
Properties=species:S:1:pos:R:3 charge=1 spin=1 pbc="F F F"
C        2.67761580       1.08467304       2.98998216
N        2.04189402       1.26747130       1.67801557
C        2.86126506       1.99815414       0.70703763
C        0.84443602       0.86219989       1.47019746
C        0.05821892       0.90679046       0.23895282
C       -1.39674174       1.22896892       0.54488062
C       -1.94259509       2.41184698       0.06989453
C       -3.25844992       2.74656933       0.35594080
C       -4.03921254       1.89925364       1.12378700
C       -3.50154391       0.71244941       1.60198375
C       -2.18652406       0.37661119       1.31066839
H        3.57801506       0.48710402       2.87446459
H        2.94217089       2.05909837       3.39370983
H        1.98703212       0.58762653       3.66363841
H        2.26308202       2.28663577      -0.14816440
H        3.68468479       1.36790147       0.38116963
H        3.25459008       2.88688260       1.19667058
H        0.36706240       0.38985021       2.32456268
H        0.46885073       1.61093791      -0.48999424
H        0.12917599       0.14559319      -0.07501454
H       -1.33458681       3.09088330      -0.51504834
H       -3.66350598       3.67813710      -0.01337262
H       -5.06020163       2.16541682       1.35843795
H       -4.10645578       0.04621920       2.20217647
H       -1.78117736      -0.55393274       1.69316744
C        2.39431428      -1.13706917      -1.46260807
C        1.13113914      -1.85896394      -1.92320739
N       -0.10250424      -1.47732504      -1.20202961
C       -0.53345198      -2.53423133      -0.26770172
C        0.49374886      -2.89414137       0.79503984
C       -1.21557391      -1.19527833      -2.13394732
C       -1.00587934       0.01283404      -3.03504524
H        3.25341125      -1.50920500      -2.02487854
H        2.59328505      -1.29859953      -0.39836171
H        2.31685340      -0.06250454      -1.65155868
H        1.28487682      -2.94395801      -1.85137864
H        0.99741586      -1.66477505      -2.98861155
H       -0.79711315      -3.44823904      -0.83062437
H       -1.45788481      -2.20079587       0.21093105
H        0.75017043      -2.02963057       1.41534383
H        1.41431263      -3.28584220       0.36005639
H        0.08931611      -3.66330611       1.45370518
H       -1.41320560      -2.08520697      -2.75911931
H       -2.11700561      -1.03772974      -1.53562497
H       -0.93036989       0.93471164      -2.45681810
H       -0.11879615      -0.07884122      -3.66324927
H       -1.86238347       0.11576413      -3.70215697
47
Properties=species:S:1:pos:R:3 charge=1 spin=1 pbc="F F F"
C        2.67763734       1.08462630       2.99045206
N        2.04022898       1.26752996       1.67790392
C        2.86134986       1.99837238       0.70657632
C        0.84699444       0.86239073       1.47282854
C        0.05760649       0.90346018       0.23450177
C       -1.39743842       1.23003455       0.54547749
C       -1.94242584       2.41211754       0.07014465
C       -3.25855666       2.74666466       0.35597362
C       -4.03903745       1.89928356       1.12371252
C       -3.50143142       0.71235908       1.60191257
C       -2.18625109       0.37669039       1.31082787
H        3.57760889       0.48746195       2.87236968
H        2.94186424       2.05941596       3.39265278
H        1.98725790       0.58733321       3.66393423
H        2.26364234       2.28611029      -0.14891965
H        3.68384203       1.36657565       0.38256470
H        3.25379459       2.88635167       1.19755389
H        0.36915933       0.38626496       2.32481423
H        0.46739926       1.61665988      -0.48761495
H        0.13737759       0.22195783      -0.02020817
H       -1.33502941       3.09085712      -0.51570976
H       -3.66368876       3.67796950      -0.01371824
H       -5.06008069       2.16533756       1.35834902
H       -4.10628361       0.04593393       2.20183520
H       -1.78141322      -0.55443462       1.69240060
C        2.39420721      -1.13715997      -1.46270887
C        1.12991472      -1.85934522      -1.92290215
N       -0.10285662      -1.48037882      -1.20420538
C       -0.53312790      -2.53379133      -0.26902243
C        0.49352728      -2.89415928       0.79496173
C       -1.21459371      -1.19614099      -2.13352623
C       -1.00601707       0.01268496      -3.03501554
H        3.25424804      -1.50847111      -2.02439579
H        2.59325393      -1.29899788      -0.39811129
H        2.31656340      -0.06225404      -1.65197462
H        1.28787720      -2.94485947      -1.85331864
H        0.99914042      -1.66538782      -2.98920364
H       -0.79799855      -3.45196415      -0.82753873
H       -1.45792502      -2.20176495       0.21089212
H        0.75058631      -2.02937492       1.41564643
H        1.41450028      -3.28525076       0.36011056
H        0.08994405      -3.66328770       1.45435108
H       -1.41693321      -2.08425912      -2.76234267
H       -2.11717961      -1.03799241      -1.53631517
H       -0.92999104       0.93495397      -2.45694103
H       -0.11863432      -0.07875261      -3.66297062
H       -1.86222855       0.11647303      -3.70253513
47
Properties=species:S:1:pos:R:3 charge=1 spin=1 pbc="F F F"
C        2.67765887       1.08457955       2.99092196
N        2.03856394       1.26758862       1.67779226
C        2.86143467       1.99859062       0.70611500
C        0.84955286       0.86258157       1.47545962
C        0.05699406       0.90012991       0.23005071
C       -1.39813510       1.23110018       0.54607436
C       -1.94225659       2.41238811       0.07039477
C       -3.25866340       2.74676000       0.35600644
C       -4.03886237       1.89931347       1.12363804
C       -3.50131893       0.71226875       1.60184139
C       -2.18597811       0.37676959       1.31098734
H        3.57720271       0.48781988       2.87027477
H        2.94155759       2.05973354       3.39159574
H        1.98748367       0.58703988       3.66423004
H        2.26420265       2.28558481      -0.14967490
H        3.68299927       1.36524983       0.38395977
H        3.25299910       2.88582075       1.19843720
H        0.37125627       0.38267970       2.32506579
H        0.46594778       1.62238185      -0.48523565
H        0.14557919       0.29832248       0.03459820
H       -1.33547200       3.09083094      -0.51637118
H       -3.66387155       3.67780191      -0.01406385
H       -5.05995975       2.16525831       1.35826009
H       -4.10611144       0.04564865       2.20149392
H       -1.78164908      -0.55493651       1.69163377
C        2.39410014      -1.13725077      -1.46280967
C        1.12869029      -1.85972649      -1.92259691
N       -0.10320900      -1.48343260      -1.20638115
C       -0.53280383      -2.53335133      -0.27034314
C        0.49330570      -2.89417719       0.79488363
C       -1.21361351      -1.19700365      -2.13310515
C       -1.00615480       0.01253588      -3.03498584
H        3.25508483      -1.50773722      -2.02391303
H        2.59322280      -1.29939622      -0.39786087
H        2.31627341      -0.06200355      -1.65239056
H        1.29087757      -2.94576093      -1.85525864
H        1.00086497      -1.66600058      -2.98979572
H       -0.79888395      -3.45568927      -0.82445308
H       -1.45796522      -2.20273403       0.21085319
H        0.75100218      -2.02911927       1.41594902
H        1.41468792      -3.28465932       0.36016472
H        0.09057199      -3.66326930       1.45499698
H       -1.42066082      -2.08331126      -2.76556603
H       -2.11735360      -1.03825508      -1.53700537
H       -0.92961220       0.93519629      -2.45706397
H       -0.11847249      -0.07866400      -3.66269197
H       -1.86207364       0.11718194      -3.70291329
47
Properties=species:S:1:pos:R:3 charge=1 spin=1 pbc="F F F"
C        2.67768040       1.08453281       2.99139185
N        2.03689890       1.26764727       1.67768061
C        2.86151947       1.99880886       0.70565368
C        0.85211128       0.86277241       1.47809069
C        0.05638163       0.89679964       0.22559966
C       -1.39883178       1.23216582       0.54667123
C       -1.94208735       2.41265867       0.07064488
C       -3.25877014       2.74685534       0.35603926
C       -4.03868728       1.89934339       1.12356355
C       -3.50120644       0.71217841       1.60177020
C       -2.18570513       0.37684879       1.31114682
H        3.57679654       0.48817781       2.86817986
H        2.94125093       2.06005112       3.39053869
H        1.98770944       0.58674656       3.66452585
H        2.26476297       2.28505934      -0.15043015
H        3.68215651       1.36392402       0.38535485
H        3.25220361       2.88528982       1.19932051
H        0.37335320       0.37909445       2.32531734
H        0.46449631       1.62810383      -0.48285635
H        0.15378078       0.37468712       0.08940457
H       -1.33591460       3.09080475      -0.51703261
H       -3.66405434       3.67763432      -0.01440947
H       -5.05983880       2.16517905       1.35817115
H       -4.10593927       0.04536337       2.20115264
H       -1.78188494      -0.55543839       1.69086693
C        2.39399308      -1.13734156      -1.46291047
C        1.12746587      -1.86010777      -1.92229167
N       -0.10356138      -1.48648637      -1.20855692
C       -0.53247976      -2.53291132      -0.27166386
C        0.49308412      -2.89419510       0.79480552
C       -1.21263331      -1.19786631      -2.13268407
C       -1.00629253       0.01238679      -3.03495614
H        3.25592162      -1.50700334      -2.02343027
H        2.59319168      -1.29979457      -0.39761046
H        2.31598341      -0.06175305      -1.65280650
H        1.29387795      -2.94666240      -1.85719863
H        1.00258953      -1.66661335      -2.99038780
H       -0.79976936      -3.45941439      -0.82136744
H       -1.45800543      -2.20370312       0.21081426
H        0.75141806      -2.02886362       1.41625161
H        1.41487556      -3.28406789       0.36021889
H        0.09119994      -3.66325089       1.45564288
H       -1.42438843      -2.08236340      -2.76878939
H       -2.11752760      -1.03851775      -1.53769557
H       -0.92923336       0.93543862      -2.45718691
H       -0.11831065      -0.07857540      -3.66241332
H       -1.86191873       0.11789084      -3.70329144
47
Properties=species:S:1:pos:R:3 charge=1 spin=1 pbc="F F F"
C        2.67770193       1.08448607       2.99186175
N        2.03523386       1.26770593       1.67756896
C        2.86160427       1.99902710       0.70519237
C        0.85466970       0.86296325       1.48072177
C        0.05576920       0.89346936       0.22114860
C       -1.39952845       1.23323145       0.54726810
C       -1.94191810       2.41292923       0.07089500
C       -3.25887687       2.74695068       0.35607208
C       -4.03851220       1.89937330       1.12348907
C       -3.50109395       0.71208808       1.60169902
C       -2.18543215       0.37692799       1.31130629
H        3.57639037       0.48853574       2.86608495
H        2.94094428       2.06036871       3.38948165
H        1.98793521       0.58645324       3.66482167
H        2.26532328       2.28453386      -0.15118540
H        3.68131375       1.36259820       0.38674992
H        3.25140812       2.88475890       1.20020382
H        0.37545013       0.37550919       2.32556889
H        0.46304483       1.63382580      -0.48047706
H        0.16198238       0.45105177       0.14421094
H       -1.33635720       3.09077857      -0.51769403
H       -3.66423713       3.67746672      -0.01475509
H       -5.05971786       2.16509980       1.35808222
H       -4.10576709       0.04507810       2.20081136
H       -1.78212080      -0.55594028       1.69010010
C        2.39388601      -1.13743236      -1.46301127
C        1.12624144      -1.86048904      -1.92198643
N       -0.10391375      -1.48954015      -1.21073269
C       -0.53215568      -2.53247132      -0.27298457
C        0.49286255      -2.89421301       0.79472742
C       -1.21165311      -1.19872897      -2.13226299
C       -1.00643026       0.01223771      -3.03492644
H        3.25675840      -1.50626945      -2.02294751
H        2.59316055      -1.30019292      -0.39736004
H        2.31569341      -0.06150255      -1.65322244
H        1.29687833      -2.94756386      -1.85913863
H        1.00431408      -1.66722612      -2.99097989
H       -0.80065476      -3.46313951      -0.81828180
H       -1.45804564      -2.20467220       0.21077533
H        0.75183393      -2.02860797       1.41655420
H        1.41506320      -3.28347645       0.36027305
H        0.09182788      -3.66323249       1.45628879
H       -1.42811604      -2.08141554      -2.77201275
H       -2.11770159      -1.03878042      -1.53838577
H       -0.92885451       0.93568095      -2.45730985
H       -0.11814882      -0.07848679      -3.66213467
H       -1.86176381       0.11859975      -3.70366960
47
Properties=species:S:1:pos:R:3 charge=1 spin=1 pbc="F F F"
C        2.67768040       1.08453281       2.99139185
N        2.03689890       1.26764727       1.67768061
C        2.86151947       1.99880886       0.70565368
C        0.85211128       0.86277241       1.47809069
C        0.05638163       0.89679964       0.22559966
C       -1.39883178       1.23216582       0.54667123
C       -1.94208735       2.41265867       0.07064488
C       -3.25877014       2.74685534       0.35603926
C       -4.03868728       1.89934339       1.12356355
C       -3.50120644       0.71217841       1.60177020
C       -2.18570513       0.37684879       1.31114682
H        3.57679654       0.48817781       2.86817986
H        2.94125093       2.06005112       3.39053869
H        1.98770944       0.58674656       3.66452585
H        2.26476297       2.28505934      -0.15043015
H        3.68215651       1.36392402       0.38535485
H        3.25220361       2.88528982       1.19932051
H        0.37335320       0.37909445       2.32531734
H        0.46449631       1.62810383      -0.48285635
H        0.15378078       0.37468712       0.08940457
H       -1.33591460       3.09080475      -0.51703261
H       -3.66405434       3.67763432      -0.01440947
H       -5.05983880       2.16517905       1.35817115
H       -4.10593927       0.04536337       2.20115264
H       -1.78188494      -0.55543839       1.69086693
C        2.39399308      -1.13734156      -1.46291047
C        1.12746587      -1.86010777      -1.92229167
N       -0.10356138      -1.48648637      -1.20855692
C       -0.53247976      -2.53291132      -0.27166386
C        0.49308412      -2.89419510       0.79480552
C       -1.21263331      -1.19786631      -2.13268407
C       -1.00629253       0.01238679      -3.03495614
H        3.25592162      -1.50700334      -2.02343027
H        2.59319168      -1.29979457      -0.39761046
H        2.31598341      -0.06175305      -1.65280650
H        1.29387795      -2.94666240      -1.85719863
H        1.00258953      -1.66661335      -2.99038780
H       -0.79976936      -3.45941439      -0.82136744
H       -1.45800543      -2.20370312       0.21081426
H        0.75141806      -2.02886362       1.41625161
H        1.41487556      -3.28406789       0.36021889
H        0.09119994      -3.66325089       1.45564288
H       -1.42438843      -2.08236340      -2.76878939
H       -2.11752760      -1.03851775      -1.53769557
H       -0.92923336       0.93543862      -2.45718691
H       -0.11831065      -0.07857540      -3.66241332
H       -1.86191873       0.11789084      -3.70329144
47
Properties=species:S:1:pos:R:3 charge=1 spin=1 pbc="F F F"
C        2.67765887       1.08457955       2.99092196
N        2.03856394       1.26758862       1.67779226
C        2.86143467       1.99859062       0.70611500
C        0.84955286       0.86258157       1.47545962
C        0.05699406       0.90012991       0.23005071
C       -1.39813510       1.23110018       0.54607436
C       -1.94225659       2.41238811       0.07039477
C       -3.25866340       2.74676000       0.35600644
C       -4.03886237       1.89931347       1.12363804
C       -3.50131893       0.71226875       1.60184139
C       -2.18597811       0.37676959       1.31098734
H        3.57720271       0.48781988       2.87027477
H        2.94155759       2.05973354       3.39159574
H        1.98748367       0.58703988       3.66423004
H        2.26420265       2.28558481      -0.14967490
H        3.68299927       1.36524983       0.38395977
H        3.25299910       2.88582075       1.19843720
H        0.37125627       0.38267970       2.32506579
H        0.46594778       1.62238185      -0.48523565
H        0.14557919       0.29832248       0.03459820
H       -1.33547200       3.09083094      -0.51637118
H       -3.66387155       3.67780191      -0.01406385
H       -5.05995975       2.16525831       1.35826009
H       -4.10611144       0.04564865       2.20149392
H       -1.78164908      -0.55493651       1.69163377
C        2.39410014      -1.13725077      -1.46280967
C        1.12869029      -1.85972649      -1.92259691
N       -0.10320900      -1.48343260      -1.20638115
C       -0.53280383      -2.53335133      -0.27034314
C        0.49330570      -2.89417719       0.79488363
C       -1.21361351      -1.19700365      -2.13310515
C       -1.00615480       0.01253588      -3.03498584
H        3.25508483      -1.50773722      -2.02391303
H        2.59322280      -1.29939622      -0.39786087
H        2.31627341      -0.06200355      -1.65239056
H        1.29087757      -2.94576093      -1.85525864
H        1.00086497      -1.66600058      -2.98979572
H       -0.79888395      -3.45568927      -0.82445308
H       -1.45796522      -2.20273403       0.21085319
H        0.75100218      -2.02911927       1.41594902
H        1.41468792      -3.28465932       0.36016472
H        0.09057199      -3.66326930       1.45499698
H       -1.42066082      -2.08331126      -2.76556603
H       -2.11735360      -1.03825508      -1.53700537
H       -0.92961220       0.93519629      -2.45706397
H       -0.11847249      -0.07866400      -3.66269197
H       -1.86207364       0.11718194      -3.70291329
47
Properties=species:S:1:pos:R:3 charge=1 spin=1 pbc="F F F"
C        2.67763734       1.08462630       2.99045206
N        2.04022898       1.26752996       1.67790392
C        2.86134986       1.99837238       0.70657632
C        0.84699444       0.86239073       1.47282854
C        0.05760649       0.90346018       0.23450177
C       -1.39743842       1.23003455       0.54547749
C       -1.94242584       2.41211754       0.07014465
C       -3.25855666       2.74666466       0.35597362
C       -4.03903745       1.89928356       1.12371252
C       -3.50143142       0.71235908       1.60191257
C       -2.18625109       0.37669039       1.31082787
H        3.57760889       0.48746195       2.87236968
H        2.94186424       2.05941596       3.39265278
H        1.98725790       0.58733321       3.66393423
H        2.26364234       2.28611029      -0.14891965
H        3.68384203       1.36657565       0.38256470
H        3.25379459       2.88635167       1.19755389
H        0.36915933       0.38626496       2.32481423
H        0.46739926       1.61665988      -0.48761495
H        0.13737759       0.22195783      -0.02020817
H       -1.33502941       3.09085712      -0.51570976
H       -3.66368876       3.67796950      -0.01371824
H       -5.06008069       2.16533756       1.35834902
H       -4.10628361       0.04593393       2.20183520
H       -1.78141322      -0.55443462       1.69240060
C        2.39420721      -1.13715997      -1.46270887
C        1.12991472      -1.85934522      -1.92290215
N       -0.10285662      -1.48037882      -1.20420538
C       -0.53312790      -2.53379133      -0.26902243
C        0.49352728      -2.89415928       0.79496173
C       -1.21459371      -1.19614099      -2.13352623
C       -1.00601707       0.01268496      -3.03501554
H        3.25424804      -1.50847111      -2.02439579
H        2.59325393      -1.29899788      -0.39811129
H        2.31656340      -0.06225404      -1.65197462
H        1.28787720      -2.94485947      -1.85331864
H        0.99914042      -1.66538782      -2.98920364
H       -0.79799855      -3.45196415      -0.82753873
H       -1.45792502      -2.20176495       0.21089212
H        0.75058631      -2.02937492       1.41564643
H        1.41450028      -3.28525076       0.36011056
H        0.08994405      -3.66328770       1.45435108
H       -1.41693321      -2.08425912      -2.76234267
H       -2.11717961      -1.03799241      -1.53631517
H       -0.92999104       0.93495397      -2.45694103
H       -0.11863432      -0.07875261      -3.66297062
H       -1.86222855       0.11647303      -3.70253513
47
Properties=species:S:1:pos:R:3 charge=1 spin=1 pbc="F F F"
C        2.67761580       1.08467304       2.98998216
N        2.04189402       1.26747130       1.67801557
C        2.86126506       1.99815414       0.70703763
C        0.84443602       0.86219989       1.47019746
C        0.05821892       0.90679046       0.23895282
C       -1.39674174       1.22896892       0.54488062
C       -1.94259509       2.41184698       0.06989453
C       -3.25844992       2.74656933       0.35594080
C       -4.03921254       1.89925364       1.12378700
C       -3.50154391       0.71244941       1.60198375
C       -2.18652406       0.37661119       1.31066839
H        3.57801506       0.48710402       2.87446459
H        2.94217089       2.05909837       3.39370983
H        1.98703212       0.58762653       3.66363841
H        2.26308202       2.28663577      -0.14816440
H        3.68468479       1.36790147       0.38116963
H        3.25459008       2.88688260       1.19667058
H        0.36706240       0.38985021       2.32456268
H        0.46885073       1.61093791      -0.48999424
H        0.12917599       0.14559319      -0.07501454
H       -1.33458681       3.09088330      -0.51504834
H       -3.66350598       3.67813710      -0.01337262
H       -5.06020163       2.16541682       1.35843795
H       -4.10645578       0.04621920       2.20217647
H       -1.78117736      -0.55393274       1.69316744
C        2.39431428      -1.13706917      -1.46260807
C        1.13113914      -1.85896394      -1.92320739
N       -0.10250424      -1.47732504      -1.20202961
C       -0.53345198      -2.53423133      -0.26770172
C        0.49374886      -2.89414137       0.79503984
C       -1.21557391      -1.19527833      -2.13394732
C       -1.00587934       0.01283404      -3.03504524
H        3.25341125      -1.50920500      -2.02487854
H        2.59328505      -1.29859953      -0.39836171
H        2.31685340      -0.06250454      -1.65155868
H        1.28487682      -2.94395801      -1.85137864
H        0.99741586      -1.66477505      -2.98861155
H       -0.79711315      -3.44823904      -0.83062437
H       -1.45788481      -2.20079587       0.21093105
H        0.75017043      -2.02963057       1.41534383
H        1.41431263      -3.28584220       0.36005639
H        0.08931611      -3.66330611       1.45370518
H       -1.41320560      -2.08520697      -2.75911931
H       -2.11700561      -1.03772974      -1.53562497
H       -0.93036989       0.93471164      -2.45681810
H       -0.11879615      -0.07884122      -3.66324927
H       -1.86238347       0.11576413      -3.70215697
47
Properties=species:S:1:pos:R:3 charge=1 spin=1 pbc="F F F"
C        2.67759427       1.08471978       2.98951226
N        2.04355906       1.26741265       1.67812722
C        2.86118026       1.99793590       0.70749895
C        0.84187760       0.86200905       1.46756638
C        0.05883135       0.91012073       0.24340388
C       -1.39604507       1.22790329       0.54428375
C       -1.94276434       2.41157642       0.06964442
C       -3.25834319       2.74647399       0.35590798
C       -4.03938762       1.89922373       1.12386149
C       -3.50165640       0.71253974       1.60205493
C       -2.18679704       0.37653199       1.31050892
H        3.57842123       0.48674609       2.87655950
H        2.94247755       2.05878079       3.39476688
H        1.98680635       0.58791985       3.66334260
H        2.26252171       2.28716125      -0.14740915
H        3.68552755       1.36922728       0.37977456
H        3.25538557       2.88741352       1.19578727
H        0.36496547       0.39343547       2.32431113
H        0.47030221       1.60521594      -0.49237354
H        0.12097440       0.06922854      -0.12982091
H       -1.33414422       3.09090948      -0.51438691
H       -3.66332319       3.67830469      -0.01302700
H       -5.06032257       2.16549607       1.35852689
H       -4.10662796       0.04650448       2.20251775
H       -1.78094150      -0.55343085       1.69393427
C        2.39442135      -1.13697838      -1.46250727
C        1.13236356      -1.85858267      -1.92351263
N       -0.10215186      -1.47427127      -1.19985384
C       -0.53377605      -2.53467133      -0.26638100
C        0.49397043      -2.89412346       0.79511795
C       -1.21655411      -1.19441568      -2.13436840
C       -1.00574161       0.01298312      -3.03507495
H        3.25257447      -1.50993888      -2.02536130
H        2.59331618      -1.29820118      -0.39861213
H        2.31714340      -0.06275504      -1.65114274
H        1.28187645      -2.94305654      -1.84943865
H        0.99569131      -1.66416228      -2.98801947
H       -0.79622774      -3.44451392      -0.83371002
H       -1.45784460      -2.19982679       0.21096998
H        0.74975456      -2.02988622       1.41504124
H        1.41412499      -3.28643363       0.36000223
H        0.08868817      -3.66332451       1.45305928
H       -1.40947799      -2.08615483      -2.75589595
H       -2.11683162      -1.03746707      -1.53493477
H       -0.93074873       0.93446931      -2.45669516
H       -0.11895799      -0.07892982      -3.66352792
H       -1.86253838       0.11505522      -3.70177882
47
Properties=species:S:1:pos:R:3 charge=1 spin=1 pbc="F F F"
C        2.67757274       1.08476652       2.98904236
N        2.04522409       1.26735399       1.67823888
C        2.86109545       1.99771767       0.70796027
C        0.83931918       0.86181821       1.46493531
C        0.05944378       0.91345100       0.24785493
C       -1.39534839       1.22683766       0.54368689
C       -1.94293359       2.41130585       0.06939430
C       -3.25823645       2.74637865       0.35587516
C       -4.03956270       1.89919381       1.12393597
C       -3.50176889       0.71263008       1.60212611
C       -2.18707002       0.37645279       1.31034944
H        3.57882741       0.48638816       2.87865441
H        2.94278420       2.05846320       3.39582392
H        1.98658058       0.58821317       3.66304678
H        2.26196139       2.28768673      -0.14665390
H        3.68637031       1.37055310       0.37837949
H        3.25618107       2.88794445       1.19490396
H        0.36286854       0.39702073       2.32405958
H        0.47175368       1.59949396      -0.49475284
H        0.11277280      -0.00713611      -0.18462727
H       -1.33370162       3.09093567      -0.51372549
H       -3.66314040       3.67847229      -0.01268138
H       -5.06044351       2.16557533       1.35861582
H       -4.10680013       0.04678976       2.20285903
H       -1.78070564      -0.55292897       1.69470110
C        2.39452842      -1.13688758      -1.46240647
C        1.13358799      -1.85820139      -1.92381787
N       -0.10179948      -1.47121749      -1.19767807
C       -0.53410012      -2.53511134      -0.26506029
C        0.49419201      -2.89410555       0.79519605
C       -1.21753431      -1.19355302      -2.13478948
C       -1.00560388       0.01313220      -3.03510465
H        3.25173768      -1.51067277      -2.02584406
H        2.59334730      -1.29780283      -0.39886255
H        2.31743339      -0.06300553      -1.65072680
H        1.27887607      -2.94215508      -1.84749865
H        0.99396676      -1.66354951      -2.98742739
H       -0.79534234      -3.44078880      -0.83679566
H       -1.45780440      -2.19885771       0.21100892
H        0.74933868      -2.03014188       1.41473865
H        1.41393735      -3.28702507       0.35994807
H        0.08806022      -3.66334291       1.45241338
H       -1.40575038      -2.08710269      -2.75267259
H       -2.11665762      -1.03720440      -1.53424457
H       -0.93112757       0.93422698      -2.45657222
H       -0.11911982      -0.07901843      -3.66380657
H       -1.86269329       0.11434632      -3.70140066
47
Properties=species:S:1:pos:R:3 charge=1 spin=1 pbc="F F F"
C        2.67755121       1.08481326       2.98857246
N        2.04688913       1.26729534       1.67835053
C        2.86101065       1.99749943       0.70842158
C        0.83676076       0.86162738       1.46230423
C        0.06005621       0.91678128       0.25230599
C       -1.39465171       1.22577203       0.54309002
C       -1.94310284       2.41103529       0.06914418
C       -3.25812971       2.74628331       0.35584235
C       -4.03973779       1.89916390       1.12401045
C       -3.50188139       0.71272041       1.60219729
C       -2.18734300       0.37637360       1.31018997
H        3.57923358       0.48603023       2.88074932
H        2.94309085       2.05814562       3.39688097
H        1.98635481       0.58850649       3.66275097
H        2.26140108       2.28821221      -0.14589864
H        3.68721307       1.37187891       0.37698442
H        3.25697656       2.88847537       1.19402065
H        0.36077161       0.40060598       2.32380803
H        0.47320516       1.59377199      -0.49713213
H        0.10457121      -0.08350075      -0.23943364
H       -1.33325903       3.09096185      -0.51306406
H       -3.66295761       3.67863988      -0.01233576
H       -5.06056445       2.16565458       1.35870476
H       -4.10697230       0.04707503       2.20320031
H       -1.78046978      -0.55242708       1.69546794
C        2.39463549      -1.13679679      -1.46230567
C        1.13481241      -1.85782012      -1.92412311
N       -0.10144711      -1.46816371      -1.19550231
C       -0.53442420      -2.53555134      -0.26373958
C        0.49441359      -2.89408764       0.79527416
C       -1.21851452      -1.19269036      -2.13521056
C       -1.00546615       0.01328128      -3.03513435
H        3.25090089      -1.51140665      -2.02632682
H        2.59337843      -1.29740448      -0.39911297
H        2.31772339      -0.06325603      -1.65031085
H        1.27587570      -2.94125362      -1.84555865
H        0.99224220      -1.66293674      -2.98683530
H       -0.79445693      -3.43706368      -0.83988131
H       -1.45776419      -2.19788863       0.21104785
H        0.74892281      -2.03039753       1.41443606
H        1.41374971      -3.28761650       0.35989390
H        0.08743228      -3.66336132       1.45176747
H       -1.40202277      -2.08805055      -2.74944923
H       -2.11648363      -1.03694173      -1.53355436
H       -0.93150642       0.93398465      -2.45644928
H       -0.11928166      -0.07910703      -3.66408522
H       -1.86284821       0.11363741      -3.70102251
47
Properties=species:S:1:pos:R:3 charge=1 spin=1 pbc="F F F"
C        2.67752968       1.08486001       2.98810257
N        2.04855417       1.26723668       1.67846218
C        2.86092585       1.99728119       0.70888290
C        0.83420234       0.86143654       1.45967315
C        0.06066864       0.92011155       0.25675704
C       -1.39395503       1.22470639       0.54249315
C       -1.94327208       2.41076473       0.06889406
C       -3.25802297       2.74618797       0.35580953
C       -4.03991287       1.89913398       1.12408493
C       -3.50199388       0.71281074       1.60226848
C       -2.18761598       0.37629440       1.31003049
H        3.57963975       0.48567230       2.88284423
H        2.94339750       2.05782804       3.39793802
H        1.98612904       0.58879982       3.66245516
H        2.26084076       2.28873768      -0.14514339
H        3.68805583       1.37320473       0.37558934
H        3.25777205       2.88900630       1.19313734
H        0.35867467       0.40419124       2.32355647
H        0.47465663       1.58805002      -0.49951143
H        0.09636961      -0.15986540      -0.29424001
H       -1.33281643       3.09098803      -0.51240264
H       -3.66277482       3.67880747      -0.01199014
H       -5.06068540       2.16573384       1.35879369
H       -4.10714447       0.04736031       2.20354158
H       -1.78023392      -0.55192520       1.69623477
C        2.39474255      -1.13670599      -1.46220487
C        1.13603683      -1.85743884      -1.92442835
N       -0.10109473      -1.46510993      -1.19332654
C       -0.53474827      -2.53599134      -0.26241887
C        0.49463517      -2.89406973       0.79535227
C       -1.21949472      -1.19182770      -2.13563165
C       -1.00532842       0.01343037      -3.03516405
H        3.25006410      -1.51214054      -2.02680957
H        2.59340955      -1.29700614      -0.39936339
H        2.31801339      -0.06350653      -1.64989491
H        1.27287532      -2.94035216      -1.84361865
H        0.99051765      -1.66232398      -2.98624322
H       -0.79357153      -3.43333856      -0.84296695
H       -1.45772398      -2.19691954       0.21108678
H        0.74850693      -2.03065318       1.41413346
H        1.41356206      -3.28820794       0.35983974
H        0.08680434      -3.66337972       1.45112157
H       -1.39829516      -2.08899840      -2.74622587
H       -2.11630963      -1.03667906      -1.53286416
H       -0.93188526       0.93374233      -2.45632635
H       -0.11944349      -0.07919564      -3.66436387
H       -1.86300312       0.11292851      -3.70064435
47
Properties=species:S:1:pos:R:3 charge=1 spin=1 pbc="F F F"
C        2.67750815       1.08490675       2.98763267
N        2.05021921       1.26717803       1.67857384
C        2.86084104       1.99706295       0.70934421
C        0.83164392       0.86124570       1.45704208
C        0.06128107       0.92344183       0.26120810
C       -1.39325836       1.22364076       0.54189628
C       -1.94344133       2.41049416       0.06864395
C       -3.25791624       2.74609263       0.35577671
C       -4.04008796       1.89910407       1.12415942
C       -3.50210637       0.71290108       1.60233966
C       -2.18788896       0.37621520       1.30987102
H        3.58004593       0.48531437       2.88493914
H        2.94370416       2.05751045       3.39899506
H        1.98590327       0.58909314       3.66215934
H        2.26028045       2.28926316      -0.14438814
H        3.68889859       1.37453054       0.37419427
H        3.25856754       2.88953722       1.19225403
H        0.35657774       0.40777649       2.32330492
H        0.47610811       1.58232804      -0.50189072
H        0.08816802      -0.23623004      -0.34904638
H       -1.33237384       3.09101422      -0.51174121
H       -3.66259203       3.67897507      -0.01164452
H       -5.06080634       2.16581309       1.35888263
H       -4.10731665       0.04764558       2.20388286
H       -1.77999806      -0.55142331       1.69700161
C        2.39484962      -1.13661520      -1.46210407
C        1.13726126      -1.85705757      -1.92473359
N       -0.10074235      -1.46205616      -1.19115077
C       -0.53507235      -2.53643135      -0.26109815
C        0.49485674      -2.89405182       0.79543037
C       -1.22047492      -1.19096504      -2.13605273
C       -1.00519069       0.01357945      -3.03519375
H        3.24922732      -1.51287442      -2.02729233
H        2.59344068      -1.29660779      -0.39961381
H        2.31830338      -0.06375702      -1.64947897
H        1.26987495      -2.93945069      -1.84167866
H        0.98879309      -1.66171121      -2.98565113
H       -0.79268612      -3.42961344      -0.84605260
H       -1.45768378      -2.19595046       0.21112571
H        0.74809106      -2.03090883       1.41383087
H        1.41337442      -3.28879937       0.35978557
H        0.08617639      -3.66339813       1.45047567
H       -1.39456755      -2.08994626      -2.74300251
H       -2.11613564      -1.03641639      -1.53217396
H       -0.93226411       0.93350000      -2.45620341
H       -0.11960533      -0.07928424      -3.66464252
H       -1.86315804       0.11221960      -3.70026620
47
Properties=species:S:1:pos:R:3 charge=1 spin=1 pbc="F F F"
C        2.67748662       1.08495349       2.98716277
N        2.05188425       1.26711937       1.67868549
C        2.86075624       1.99684471       0.70980553
C        0.82908550       0.86105486       1.45441100
C        0.06189350       0.92677210       0.26565915
C       -1.39256168       1.22257513       0.54129941
C       -1.94361058       2.41022360       0.06839383
C       -3.25780950       2.74599729       0.35574389
C       -4.04026304       1.89907415       1.12423390
C       -3.50221886       0.71299141       1.60241084
C       -2.18816194       0.37613600       1.30971154
H        3.58045210       0.48495644       2.88703405
H        2.94401081       2.05719287       3.40005211
H        1.98567750       0.58938646       3.66186353
H        2.25972013       2.28978864      -0.14363289
H        3.68974135       1.37585636       0.37279920
H        3.25936303       2.89006815       1.19137072
H        0.35448081       0.41136175       2.32305337
H        0.47755958       1.57660607      -0.50427002
H        0.07996642      -0.31259469      -0.40385275
H       -1.33193124       3.09104040      -0.51107979
H       -3.66240924       3.67914266      -0.01129890
H       -5.06092728       2.16589235       1.35897156
H       -4.10748882       0.04793086       2.20422414
H       -1.77976220      -0.55092143       1.69776844
C        2.39495669      -1.13652440      -1.46200327
C        1.13848568      -1.85667629      -1.92503883
N       -0.10038997      -1.45900238      -1.18897500
C       -0.53539642      -2.53687135      -0.25977744
C        0.49507832      -2.89403391       0.79550848
C       -1.22145512      -1.19010238      -2.13647381
C       -1.00505296       0.01372853      -3.03522345
H        3.24839053      -1.51360831      -2.02777509
H        2.59347180      -1.29620944      -0.39986423
H        2.31859338      -0.06400752      -1.64906303
H        1.26687457      -2.93854923      -1.83973866
H        0.98706854      -1.66109844      -2.98505905
H       -0.79180072      -3.42588832      -0.84913824
H       -1.45764357      -2.19498138       0.21116464
H        0.74767518      -2.03116448       1.41352828
H        1.41318678      -3.28939081       0.35973141
H        0.08554845      -3.66341653       1.44982977
H       -1.39083994      -2.09089412      -2.73977915
H       -2.11596164      -1.03615372      -1.53148376
H       -0.93264295       0.93325767      -2.45608047
H       -0.11976716      -0.07937285      -3.66492117
H       -1.86331295       0.11151070      -3.69988804
47
Properties=species:S:1:pos:R:3 charge=1 spin=1 pbc="F F F"
C        2.67746509       1.08500023       2.98669287
N        2.05354929       1.26706071       1.67879714
C        2.86067144       1.99662647       0.71026685
C        0.82652708       0.86086402       1.45177992
C        0.06250593       0.93010237       0.27011020
C       -1.39186500       1.22150950       0.54070254
C       -1.94377983       2.40995304       0.06814371
C       -3.25770276       2.74590195       0.35571107
C       -4.04043812       1.89904423       1.12430838
C       -3.50233135       0.71308174       1.60248202
C       -2.18843492       0.37605680       1.30955206
H        3.58085827       0.48459851       2.88912896
H        2.94431746       2.05687529       3.40110916
H        1.98545173       0.58967978       3.66156772
H        2.25915981       2.29031412      -0.14287764
H        3.69058411       1.37718218       0.37140413
H        3.26015852       2.89059908       1.19048741
H        0.35238388       0.41494701       2.32280182
H        0.47901105       1.57088410      -0.50664932
H        0.07176482      -0.38895934      -0.45865912
H       -1.33148864       3.09106658      -0.51041837
H       -3.66222645       3.67931025      -0.01095328
H       -5.06104822       2.16597161       1.35906049
H       -4.10766099       0.04821614       2.20456542
H       -1.77952634      -0.55041955       1.69853527
C        2.39506376      -1.13643360      -1.46190247
C        1.13971010      -1.85629501      -1.92534407
N       -0.10003759      -1.45594860      -1.18679923
C       -0.53572049      -2.53731135      -0.25845673
C        0.49529990      -2.89401600       0.79558659
C       -1.22243532      -1.18923972      -2.13689489
C       -1.00491523       0.01387761      -3.03525315
H        3.24755374      -1.51434220      -2.02825785
H        2.59350292      -1.29581109      -0.40011465
H        2.31888338      -0.06425802      -1.64864709
H        1.26387419      -2.93764777      -1.83779866
H        0.98534399      -1.66048567      -2.98446697
H       -0.79091532      -3.42216320      -0.85222388
H       -1.45760336      -2.19401230       0.21120357
H        0.74725930      -2.03142013       1.41322569
H        1.41299914      -3.28998225       0.35967725
H        0.08492051      -3.66343493       1.44918387
H       -1.38711233      -2.09184198      -2.73655579
H       -2.11578764      -1.03589105      -1.53079356
H       -0.93302179       0.93301534      -2.45595753
H       -0.11992899      -0.07946146      -3.66519982
H       -1.86346786       0.11080180      -3.69950988
47
Properties=species:S:1:pos:R:3 charge=1 spin=1 pbc="F F F"
C        2.67744356       1.08504697       2.98622297
N        2.05521433       1.26700206       1.67890880
C        2.86058663       1.99640823       0.71072816
C        0.82396866       0.86067318       1.44914885
C        0.06311836       0.93343265       0.27456126
C       -1.39116833       1.22044387       0.54010567
C       -1.94394908       2.40968247       0.06789360
C       -3.25759603       2.74580661       0.35567825
C       -4.04061321       1.89901432       1.12438287
C       -3.50244384       0.71317208       1.60255320
C       -2.18870790       0.37597760       1.30939259
H        3.58126445       0.48424058       2.89122387
H        2.94462412       2.05655770       3.40216620
H        1.98522596       0.58997310       3.66127190
H        2.25859950       2.29083960      -0.14212239
H        3.69142687       1.37850799       0.37000906
H        3.26095401       2.89113000       1.18960410
H        0.35028695       0.41853226       2.32255027
H        0.48046253       1.56516212      -0.50902861
H        0.06356323      -0.46532398      -0.51346549
H       -1.33104605       3.09109277      -0.50975694
H       -3.66204366       3.67947785      -0.01060766
H       -5.06116916       2.16605086       1.35914943
H       -4.10783317       0.04850141       2.20490670
H       -1.77929048      -0.54991766       1.69930211
C        2.39517083      -1.13634281      -1.46180167
C        1.14093453      -1.85591374      -1.92564931
N       -0.09968521      -1.45289483      -1.18462346
C       -0.53604457      -2.53775136      -0.25713601
C        0.49552147      -2.89399809       0.79566469
C       -1.22341552      -1.18837706      -2.13731597
C       -1.00477750       0.01402669      -3.03528285
H        3.24671696      -1.51507608      -2.02874061
H        2.59353405      -1.29541274      -0.40036507
H        2.31917337      -0.06450851      -1.64823115
H        1.26087382      -2.93674630      -1.83585867
H        0.98361943      -1.65987290      -2.98387488
H       -0.79002991      -3.41843808      -0.85530953
H       -1.45756316      -2.19304322       0.21124250
H        0.74684343      -2.03167578       1.41292310
H        1.41281150      -3.29057368       0.35962308
H        0.08429256      -3.66345334       1.44853797
H       -1.38338472      -2.09278984      -2.73333243
H       -2.11561365      -1.03562838      -1.53010336
H       -0.93340064       0.93277301      -2.45583459
H       -0.12009083      -0.07955006      -3.66547847
H       -1.86362278       0.11009289      -3.69913173
47
Properties=species:S:1:pos:R:3 charge=1 spin=1 pbc="F F F"
C        2.67742203       1.08509372       2.98575308
N        2.05687937       1.26694340       1.67902045
C        2.86050183       1.99618999       0.71118948
C        0.82141024       0.86048234       1.44651777
C        0.06373079       0.93676292       0.27901231
C       -1.39047165       1.21937823       0.53950880
C       -1.94411832       2.40941191       0.06764348
C       -3.25748929       2.74571127       0.35564543
C       -4.04078829       1.89898440       1.12445735
C       -3.50255633       0.71326241       1.60262439
C       -2.18898088       0.37589840       1.30923311
H        3.58167062       0.48388265       2.89331878
H        2.94493077       2.05624012       3.40322325
H        1.98500019       0.59026643       3.66097609
H        2.25803918       2.29136507      -0.14136714
H        3.69226963       1.37983381       0.36861398
H        3.26174950       2.89166093       1.18872079
H        0.34819001       0.42211752       2.32229871
H        0.48191400       1.55944015      -0.51140791
H        0.05536163      -0.54168863      -0.56827186
H       -1.33060345       3.09111895      -0.50909552
H       -3.66186087       3.67964544      -0.01026204
H       -5.06129011       2.16613012       1.35923836
H       -4.10800534       0.04878669       2.20524797
H       -1.77905462      -0.54941578       1.70006894
C        2.39527789      -1.13625201      -1.46170087
C        1.14215895      -1.85553246      -1.92595455
N       -0.09933283      -1.44984105      -1.18244769
C       -0.53636864      -2.53819136      -0.25581530
C        0.49574305      -2.89398018       0.79574280
C       -1.22439572      -1.18751440      -2.13773706
C       -1.00463977       0.01417578      -3.03531255
H        3.24588017      -1.51580997      -2.02922336
H        2.59356517      -1.29501440      -0.40061549
H        2.31946337      -0.06475901      -1.64781521
H        1.25787344      -2.93584484      -1.83391867
H        0.98189488      -1.65926014      -2.98328280
H       -0.78914451      -3.41471296      -0.85839517
H       -1.45752295      -2.19207413       0.21128143
H        0.74642755      -2.03193143       1.41262050
H        1.41262385      -3.29116512       0.35956892
H        0.08366462      -3.66347174       1.44789207
H       -1.37965711      -2.09373769      -2.73010907
H       -2.11543965      -1.03536571      -1.52941316
H       -0.93377948       0.93253069      -2.45571166
H       -0.12025266      -0.07963867      -3.66575712
H       -1.86377769       0.10938399      -3.69875357
47
Properties=species:S:1:pos:R:3 charge=1 spin=1 pbc="F F F"
C        2.67740050       1.08514046       2.98528318
N        2.05854441       1.26688475       1.67913210
C        2.86041703       1.99597175       0.71165079
C        0.81885182       0.86029151       1.44388669
C        0.06434322       0.94009320       0.28346337
C       -1.38977497       1.21831260       0.53891193
C       -1.94428757       2.40914135       0.06739336
C       -3.25738255       2.74561593       0.35561262
C       -4.04096338       1.89895449       1.12453183
C       -3.50266883       0.71335274       1.60269557
C       -2.18925386       0.37581921       1.30907364
H        3.58207679       0.48352472       2.89541369
H        2.94523742       2.05592254       3.40428030
H        1.98477442       0.59055975       3.66068028
H        2.25747887       2.29189055      -0.14061188
H        3.69311239       1.38115962       0.36721891
H        3.26254499       2.89219185       1.18783748
H        0.34609308       0.42570277       2.32204716
H        0.48336548       1.55371818      -0.51378720
H        0.04716004      -0.61805327      -0.62307823
H       -1.33016086       3.09114513      -0.50843409
H       -3.66167808       3.67981303      -0.00991642
H       -5.06141105       2.16620937       1.35932730
H       -4.10817751       0.04907196       2.20558925
H       -1.77881876      -0.54891389       1.70083578
C        2.39538496      -1.13616122      -1.46160007
C        1.14338337      -1.85515119      -1.92625979
N       -0.09898046      -1.44678727      -1.18027193
C       -0.53669272      -2.53863136      -0.25449459
C        0.49596463      -2.89396227       0.79582091
C       -1.22537593      -1.18665174      -2.13815814
C       -1.00450204       0.01432486      -3.03534225
H        3.24504338      -1.51654385      -2.02970612
H        2.59359630      -1.29461605      -0.40086591
H        2.31975337      -0.06500951      -1.64739926
H        1.25487307      -2.93494338      -1.83197867
H        0.98017032      -1.65864737      -2.98269071
H       -0.78825910      -3.41098784      -0.86148082
H       -1.45748274      -2.19110505       0.21132036
H        0.74601168      -2.03218708       1.41231791
H        1.41243621      -3.29175655       0.35951475
H        0.08303668      -3.66349015       1.44724616
H       -1.37592950      -2.09468555      -2.72688571
H       -2.11526566      -1.03510304      -1.52872295
H       -0.93415833       0.93228836      -2.45558872
H       -0.12041450      -0.07972727      -3.66603577
H       -1.86393261       0.10867508      -3.69837542
47
Properties=species:S:1:pos:R:3 charge=1 spin=1 pbc="F F F"
C        2.67737897       1.08518720       2.98481328
N        2.06020944       1.26682609       1.67924376
C        2.86033222       1.99575352       0.71211211
C        0.81629340       0.86010067       1.44125562
C        0.06495565       0.94342347       0.28791442
C       -1.38907829       1.21724697       0.53831507
C       -1.94445682       2.40887078       0.06714324
C       -3.25727581       2.74552059       0.35557980
C       -4.04113846       1.89892457       1.12460631
C       -3.50278132       0.71344308       1.60276675
C       -2.18952684       0.37574001       1.30891416
H        3.58248297       0.48316679       2.89750860
H        2.94554407       2.05560495       3.40533734
H        1.98454865       0.59085307       3.66038446
H        2.25691855       2.29241603      -0.13985663
H        3.69395515       1.38248544       0.36582384
H        3.26334049       2.89272278       1.18695417
H        0.34399615       0.42928803       2.32179561
H        0.48481695       1.54799620      -0.51616650
H        0.03895844      -0.69441792      -0.67788459
H       -1.32971826       3.09117132      -0.50777267
H       -3.66149529       3.67998063      -0.00957080
H       -5.06153199       2.16628863       1.35941623
H       -4.10834968       0.04935724       2.20593053
H       -1.77858290      -0.54841201       1.70160261
C        2.39549203      -1.13607042      -1.46149927
C        1.14460780      -1.85476991      -1.92656503
N       -0.09862808      -1.44373349      -1.17809616
C       -0.53701679      -2.53907137      -0.25317388
C        0.49618621      -2.89394436       0.79589901
C       -1.22635613      -1.18578908      -2.13857922
C       -1.00436431       0.01447394      -3.03537195
H        3.24420659      -1.51727774      -2.03018888
H        2.59362742      -1.29421770      -0.40111633
H        2.32004336      -0.06526000      -1.64698332
H        1.25187269      -2.93404192      -1.83003867
H        0.97844577      -1.65803460      -2.98209863
H       -0.78737370      -3.40726272      -0.86456646
H       -1.45744254      -2.19013597       0.21135930
H        0.74559580      -2.03244274       1.41201532
H        1.41224857      -3.29234799       0.35946059
H        0.08240873      -3.66350855       1.44660026
H       -1.37220189      -2.09563341      -2.72366235
H       -2.11509166      -1.03484037      -1.52803275
H       -0.93453717       0.93204603      -2.45546578
H       -0.12057633      -0.07981588      -3.66631442
H       -1.86408752       0.10796618      -3.69799726
47
Properties=species:S:1:pos:R:3 charge=1 spin=1 pbc="F F F"
C        2.67735744       1.08523394       2.98434338
N        2.06187448       1.26676744       1.67935541
C        2.86024742       1.99553528       0.71257343
C        0.81373498       0.85990983       1.43862454
C        0.06556808       0.94675374       0.29236548
C       -1.38838162       1.21618134       0.53771820
C       -1.94462607       2.40860022       0.06689313
C       -3.25716908       2.74542525       0.35554698
C       -4.04131354       1.89889466       1.12468080
C       -3.50289381       0.71353341       1.60283793
C       -2.18979982       0.37566081       1.30875469
H        3.58288914       0.48280886       2.89960351
H        2.94585073       2.05528737       3.40639439
H        1.98432288       0.59114639       3.66008865
H        2.25635824       2.29294151      -0.13910138
H        3.69479791       1.38381125       0.36442877
H        3.26413598       2.89325370       1.18607086
H        0.34189922       0.43287329       2.32154406
H        0.48626843       1.54227423      -0.51854580
H        0.03075685      -0.77078257      -0.73269096
H       -1.32927567       3.09119750      -0.50711124
H       -3.66131250       3.68014822      -0.00922518
H       -5.06165293       2.16636788       1.35950517
H       -4.10852186       0.04964252       2.20627181
H       -1.77834704      -0.54791012       1.70236944
C        2.39559910      -1.13597963      -1.46139847
C        1.14583222      -1.85438864      -1.92687027
N       -0.09827570      -1.44067972      -1.17592039
C       -0.53734086      -2.53951137      -0.25185316
C        0.49640778      -2.89392645       0.79597712
C       -1.22733633      -1.18492643      -2.13900030
C       -1.00422658       0.01462302      -3.03540166
H        3.24336981      -1.51801162      -2.03067164
H        2.59365855      -1.29381935      -0.40136675
H        2.32033336      -0.06551050      -1.64656738
H        1.24887232      -2.93314045      -1.82809868
H        0.97672122      -1.65742183      -2.98150655
H       -0.78648829      -3.40353760      -0.86765211
H       -1.45740233      -2.18916689       0.21139823
H        0.74517993      -2.03269839       1.41171273
H        1.41206093      -3.29293942       0.35940643
H        0.08178079      -3.66352695       1.44595436
H       -1.36847428      -2.09658127      -2.72043899
H       -2.11491767      -1.03457770      -1.52734255
H       -0.93491601       0.93180370      -2.45534284
H       -0.12073817      -0.07990448      -3.66659307
H       -1.86424243       0.10725727      -3.69761911
47
Properties=species:S:1:pos:R:3 charge=1 spin=1 pbc="F F F"
C        2.67733590       1.08528068       2.98387348
N        2.06353952       1.26670878       1.67946706
C        2.86016262       1.99531704       0.71303474
C        0.81117656       0.85971899       1.43599346
C        0.06618051       0.95008402       0.29681653
C       -1.38768494       1.21511571       0.53712133
C       -1.94479532       2.40832966       0.06664301
C       -3.25706234       2.74532992       0.35551416
C       -4.04148863       1.89886474       1.12475528
C       -3.50300630       0.71362374       1.60290911
C       -2.19007279       0.37558161       1.30859521
H        3.58329531       0.48245093       2.90169842
H        2.94615738       2.05496978       3.40745144
H        1.98409710       0.59143971       3.65979283
H        2.25579792       2.29346699      -0.13834613
H        3.69564067       1.38513707       0.36303370
H        3.26493147       2.89378463       1.18518755
H        0.33980229       0.43645854       2.32129251
H        0.48771990       1.53655226      -0.52092509
H        0.02255525      -0.84714721      -0.78749733
H       -1.32883307       3.09122368      -0.50644982
H       -3.66112972       3.68031582      -0.00887956
H       -5.06177387       2.16644714       1.35959410
H       -4.10869403       0.04992779       2.20661308
H       -1.77811118      -0.54740824       1.70313628
C        2.39570617      -1.13588883      -1.46129767
C        1.14705664      -1.85400736      -1.92717551
N       -0.09792332      -1.43762594      -1.17374462
C       -0.53766494      -2.53995137      -0.25053245
C        0.49662936      -2.89390854       0.79605523
C       -1.22831653      -1.18406377      -2.13942139
C       -1.00408885       0.01477210      -3.03543136
H        3.24253302      -1.51874551      -2.03115439
H        2.59368967      -1.29342100      -0.40161717
H        2.32062336      -0.06576100      -1.64615144
H        1.24587194      -2.93223899      -1.82615868
H        0.97499666      -1.65680906      -2.98091446
H       -0.78560289      -3.39981249      -0.87073775
H       -1.45736212      -2.18819781       0.21143716
H        0.74476405      -2.03295404       1.41141013
H        1.41187328      -3.29353086       0.35935226
H        0.08115285      -3.66354536       1.44530846
H       -1.36474667      -2.09752912      -2.71721563
H       -2.11474367      -1.03431503      -1.52665235
H       -0.93529486       0.93156137      -2.45521991
H       -0.12090000      -0.07999309      -3.66687172
H       -1.86439735       0.10654837      -3.69724095
47
Properties=species:S:1:pos:R:3 charge=1 spin=1 pbc="F F F"
C        2.67731437       1.08532743       2.98340358
N        2.06520456       1.26665012       1.67957872
C        2.86007781       1.99509880       0.71349606
C        0.80861814       0.85952815       1.43336238
C        0.06679294       0.95341429       0.30126759
C       -1.38698826       1.21405008       0.53652446
C       -1.94496457       2.40805909       0.06639289
C       -3.25695560       2.74523458       0.35548134
C       -4.04166371       1.89883483       1.12482976
C       -3.50311879       0.71371407       1.60298029
C       -2.19034577       0.37550241       1.30843574
H        3.58370149       0.48209300       2.90379333
H        2.94646403       2.05465220       3.40850848
H        1.98387133       0.59173304       3.65949702
H        2.25523761       2.29399247      -0.13759088
H        3.69648343       1.38646289       0.36163863
H        3.26572696       2.89431555       1.18430424
H        0.33770535       0.44004380       2.32104095
H        0.48917138       1.53083029      -0.52330439
H        0.01435365      -0.92351186      -0.84230370
H       -1.32839048       3.09124986      -0.50578840
H       -3.66094693       3.68048341      -0.00853395
H       -5.06189481       2.16652639       1.35968303
H       -4.10886620       0.05021307       2.20695436
H       -1.77787532      -0.54690635       1.70390311
C        2.39581324      -1.13579803      -1.46119687
C        1.14828107      -1.85362609      -1.92748075
N       -0.09757094      -1.43457216      -1.17156885
C       -0.53798901      -2.54039137      -0.24921174
C        0.49685094      -2.89389063       0.79613333
C       -1.22929673      -1.18320111      -2.13984247
C       -1.00395112       0.01492118      -3.03546106
H        3.24169623      -1.51947940      -2.03163715
H        2.59372080      -1.29302266      -0.40186759
H        2.32091335      -0.06601149      -1.64573550
H        1.24287157      -2.93133753      -1.82421868
H        0.97327211      -1.65619630      -2.98032238
H       -0.78471749      -3.39608737      -0.87382340
H       -1.45732192      -2.18722873       0.21147609
H        0.74434818      -2.03320969       1.41110754
H        1.41168564      -3.29412230       0.35929810
H        0.08052491      -3.66356376       1.44466256
H       -1.36101906      -2.09847698      -2.71399227
H       -2.11456968      -1.03405236      -1.52596215
H       -0.93567370       0.93131905      -2.45509697
H       -0.12106183      -0.08008170      -3.66715037
H       -1.86455226       0.10583946      -3.69686279
47
Properties=species:S:1:pos:R:3 charge=1 spin=1 pbc="F F F"
C        2.67729284       1.08537417       2.98293369
N        2.06686960       1.26659147       1.67969037
C        2.85999301       1.99488056       0.71395738
C        0.80605972       0.85933731       1.43073131
C        0.06740537       0.95674456       0.30571864
C       -1.38629158       1.21298444       0.53592759
C       -1.94513381       2.40778853       0.06614278
C       -3.25684886       2.74513924       0.35544852
C       -4.04183880       1.89880491       1.12490425
C       -3.50323128       0.71380441       1.60305148
C       -2.19061875       0.37542321       1.30827626
H        3.58410766       0.48173507       2.90588824
H        2.94677069       2.05433462       3.40956553
H        1.98364556       0.59202636       3.65920121
H        2.25467729       2.29451794      -0.13683563
H        3.69732619       1.38778870       0.36024355
H        3.26652245       2.89484648       1.18342093
H        0.33560842       0.44362905       2.32078940
H        0.49062285       1.52510831      -0.52568369
H        0.00615206      -0.99987650      -0.89711007
H       -1.32794788       3.09127605      -0.50512697
H       -3.66076414       3.68065100      -0.00818833
H       -5.06201576       2.16660565       1.35977197
H       -4.10903837       0.05049835       2.20729564
H       -1.77763946      -0.54640447       1.70466995
C        2.39592030      -1.13570724      -1.46109607
C        1.14950549      -1.85324481      -1.92778599
N       -0.09721856      -1.43151839      -1.16939308
C       -0.53831308      -2.54083138      -0.24789102
C        0.49707252      -2.89387272       0.79621144
C       -1.23027693      -1.18233845      -2.14026355
C       -1.00381339       0.01507027      -3.03549076
H        3.24085944      -1.52021328      -2.03211991
H        2.59375192      -1.29262431      -0.40211800
H        2.32120335      -0.06626199      -1.64531956
H        1.23987119      -2.93043606      -1.82227869
H        0.97154755      -1.65558353      -2.97973030
H       -0.78383208      -3.39236225      -0.87690904
H       -1.45728171      -2.18625964       0.21151502
H        0.74393230      -2.03346534       1.41080495
H        1.41149800      -3.29471373       0.35924393
H        0.07989696      -3.66358217       1.44401666
H       -1.35729145      -2.09942484      -2.71076891
H       -2.11439568      -1.03378969      -1.52527195
H       -0.93605254       0.93107672      -2.45497403
H       -0.12122367      -0.08017030      -3.66742902
H       -1.86470717       0.10513056      -3.69648464
47
Properties=species:S:1:pos:R:3 charge=1 spin=1 pbc="F F F"
C        2.67727131       1.08542091       2.98246379
N        2.06853464       1.26653281       1.67980202
C        2.85990821       1.99466232       0.71441869
C        0.80350130       0.85914647       1.42810023
C        0.06801780       0.96007484       0.31016970
C       -1.38559491       1.21191881       0.53533072
C       -1.94530306       2.40751797       0.06589266
C       -3.25674213       2.74504390       0.35541570
C       -4.04201388       1.89877500       1.12497873
C       -3.50334377       0.71389474       1.60312266
C       -2.19089173       0.37534401       1.30811679
H        3.58451383       0.48137714       2.90798315
H        2.94707734       2.05401703       3.41062257
H        1.98341979       0.59231968       3.65890539
H        2.25411698       2.29504342      -0.13608038
H        3.69816895       1.38911452       0.35884848
H        3.26731794       2.89537740       1.18253762
H        0.33351149       0.44721431       2.32053785
H        0.49207433       1.51938634      -0.52806298
H       -0.00204954      -1.07624115      -0.95191644
H       -1.32750528       3.09130223      -0.50446555
H       -3.66058135       3.68081860      -0.00784271
H       -5.06213670       2.16668490       1.35986090
H       -4.10921055       0.05078362       2.20763692
H       -1.77740360      -0.54590258       1.70543678
C        2.39602737      -1.13561644      -1.46099527
C        1.15072992      -1.85286354      -1.92809123
N       -0.09686619      -1.42846461      -1.16721731
C       -0.53863716      -2.54127138      -0.24657031
C        0.49729409      -2.89385481       0.79628954
C       -1.23125713      -1.18147579      -2.14068463
C       -1.00367566       0.01521935      -3.03552046
H        3.24002266      -1.52094717      -2.03260267
H        2.59378305      -1.29222596      -0.40236842
H        2.32149335      -0.06651249      -1.64490362
H        1.23687081      -2.92953460      -1.82033869
H        0.96982300      -1.65497076      -2.97913821
H       -0.78294668      -3.38863713      -0.87999468
H       -1.45724150      -2.18529056       0.21155395
H        0.74351643      -2.03372099       1.41050236
H        1.41131036      -3.29530517       0.35918977
H        0.07926902      -3.66360057       1.44337075
H       -1.35356384      -2.10037270      -2.70754555
H       -2.11422169      -1.03352702      -1.52458175
H       -0.93643139       0.93083439      -2.45485109
H       -0.12138550      -0.08025891      -3.66770767
H       -1.86486209       0.10442165      -3.69610648
47
Properties=species:S:1:pos:R:3 charge=1 spin=1 pbc="F F F"
C        2.67729284       1.08537417       2.98293369
N        2.06686960       1.26659147       1.67969037
C        2.85999301       1.99488056       0.71395738
C        0.80605972       0.85933731       1.43073131
C        0.06740537       0.95674456       0.30571864
C       -1.38629158       1.21298444       0.53592759
C       -1.94513381       2.40778853       0.06614278
C       -3.25684886       2.74513924       0.35544852
C       -4.04183880       1.89880491       1.12490425
C       -3.50323128       0.71380441       1.60305148
C       -2.19061875       0.37542321       1.30827626
H        3.58410766       0.48173507       2.90588824
H        2.94677069       2.05433462       3.40956553
H        1.98364556       0.59202636       3.65920121
H        2.25467729       2.29451794      -0.13683563
H        3.69732619       1.38778870       0.36024355
H        3.26652245       2.89484648       1.18342093
H        0.33560842       0.44362905       2.32078940
H        0.49062285       1.52510831      -0.52568369
H        0.00615206      -0.99987650      -0.89711007
H       -1.32794788       3.09127605      -0.50512697
H       -3.66076414       3.68065100      -0.00818833
H       -5.06201576       2.16660565       1.35977197
H       -4.10903837       0.05049835       2.20729564
H       -1.77763946      -0.54640447       1.70466995
C        2.39592030      -1.13570724      -1.46109607
C        1.14950549      -1.85324481      -1.92778599
N       -0.09721856      -1.43151839      -1.16939308
C       -0.53831308      -2.54083138      -0.24789102
C        0.49707252      -2.89387272       0.79621144
C       -1.23027693      -1.18233845      -2.14026355
C       -1.00381339       0.01507027      -3.03549076
H        3.24085944      -1.52021328      -2.03211991
H        2.59375192      -1.29262431      -0.40211800
H        2.32120335      -0.06626199      -1.64531956
H        1.23987119      -2.93043606      -1.82227869
H        0.97154755      -1.65558353      -2.97973030
H       -0.78383208      -3.39236225      -0.87690904
H       -1.45728171      -2.18625964       0.21151502
H        0.74393230      -2.03346534       1.41080495
H        1.41149800      -3.29471373       0.35924393
H        0.07989696      -3.66358217       1.44401666
H       -1.35729145      -2.09942484      -2.71076891
H       -2.11439568      -1.03378969      -1.52527195
H       -0.93605254       0.93107672      -2.45497403
H       -0.12122367      -0.08017030      -3.66742902
H       -1.86470717       0.10513056      -3.69648464
47
Properties=species:S:1:pos:R:3 charge=1 spin=1 pbc="F F F"
C        2.67731437       1.08532743       2.98340358
N        2.06520456       1.26665012       1.67957872
C        2.86007781       1.99509880       0.71349606
C        0.80861814       0.85952815       1.43336238
C        0.06679294       0.95341429       0.30126759
C       -1.38698826       1.21405008       0.53652446
C       -1.94496457       2.40805909       0.06639289
C       -3.25695560       2.74523458       0.35548134
C       -4.04166371       1.89883483       1.12482976
C       -3.50311879       0.71371407       1.60298029
C       -2.19034577       0.37550241       1.30843574
H        3.58370149       0.48209300       2.90379333
H        2.94646403       2.05465220       3.40850848
H        1.98387133       0.59173304       3.65949702
H        2.25523761       2.29399247      -0.13759088
H        3.69648343       1.38646289       0.36163863
H        3.26572696       2.89431555       1.18430424
H        0.33770535       0.44004380       2.32104095
H        0.48917138       1.53083029      -0.52330439
H        0.01435365      -0.92351186      -0.84230370
H       -1.32839048       3.09124986      -0.50578840
H       -3.66094693       3.68048341      -0.00853395
H       -5.06189481       2.16652639       1.35968303
H       -4.10886620       0.05021307       2.20695436
H       -1.77787532      -0.54690635       1.70390311
C        2.39581324      -1.13579803      -1.46119687
C        1.14828107      -1.85362609      -1.92748075
N       -0.09757094      -1.43457216      -1.17156885
C       -0.53798901      -2.54039137      -0.24921174
C        0.49685094      -2.89389063       0.79613333
C       -1.22929673      -1.18320111      -2.13984247
C       -1.00395112       0.01492118      -3.03546106
H        3.24169623      -1.51947940      -2.03163715
H        2.59372080      -1.29302266      -0.40186759
H        2.32091335      -0.06601149      -1.64573550
H        1.24287157      -2.93133753      -1.82421868
H        0.97327211      -1.65619630      -2.98032238
H       -0.78471749      -3.39608737      -0.87382340
H       -1.45732192      -2.18722873       0.21147609
H        0.74434818      -2.03320969       1.41110754
H        1.41168564      -3.29412230       0.35929810
H        0.08052491      -3.66356376       1.44466256
H       -1.36101906      -2.09847698      -2.71399227
H       -2.11456968      -1.03405236      -1.52596215
H       -0.93567370       0.93131905      -2.45509697
H       -0.12106183      -0.08008170      -3.66715037
H       -1.86455226       0.10583946      -3.69686279
47
Properties=species:S:1:pos:R:3 charge=1 spin=1 pbc="F F F"
C        2.67733590       1.08528068       2.98387348
N        2.06353952       1.26670878       1.67946706
C        2.86016262       1.99531704       0.71303474
C        0.81117656       0.85971899       1.43599346
C        0.06618051       0.95008402       0.29681653
C       -1.38768494       1.21511571       0.53712133
C       -1.94479532       2.40832966       0.06664301
C       -3.25706234       2.74532992       0.35551416
C       -4.04148863       1.89886474       1.12475528
C       -3.50300630       0.71362374       1.60290911
C       -2.19007279       0.37558161       1.30859521
H        3.58329531       0.48245093       2.90169842
H        2.94615738       2.05496978       3.40745144
H        1.98409710       0.59143971       3.65979283
H        2.25579792       2.29346699      -0.13834613
H        3.69564067       1.38513707       0.36303370
H        3.26493147       2.89378463       1.18518755
H        0.33980229       0.43645854       2.32129251
H        0.48771990       1.53655226      -0.52092509
H        0.02255525      -0.84714721      -0.78749733
H       -1.32883307       3.09122368      -0.50644982
H       -3.66112972       3.68031582      -0.00887956
H       -5.06177387       2.16644714       1.35959410
H       -4.10869403       0.04992779       2.20661308
H       -1.77811118      -0.54740824       1.70313628
C        2.39570617      -1.13588883      -1.46129767
C        1.14705664      -1.85400736      -1.92717551
N       -0.09792332      -1.43762594      -1.17374462
C       -0.53766494      -2.53995137      -0.25053245
C        0.49662936      -2.89390854       0.79605523
C       -1.22831653      -1.18406377      -2.13942139
C       -1.00408885       0.01477210      -3.03543136
H        3.24253302      -1.51874551      -2.03115439
H        2.59368967      -1.29342100      -0.40161717
H        2.32062336      -0.06576100      -1.64615144
H        1.24587194      -2.93223899      -1.82615868
H        0.97499666      -1.65680906      -2.98091446
H       -0.78560289      -3.39981249      -0.87073775
H       -1.45736212      -2.18819781       0.21143716
H        0.74476405      -2.03295404       1.41141013
H        1.41187328      -3.29353086       0.35935226
H        0.08115285      -3.66354536       1.44530846
H       -1.36474667      -2.09752912      -2.71721563
H       -2.11474367      -1.03431503      -1.52665235
H       -0.93529486       0.93156137      -2.45521991
H       -0.12090000      -0.07999309      -3.66687172
H       -1.86439735       0.10654837      -3.69724095
47
Properties=species:S:1:pos:R:3 charge=1 spin=1 pbc="F F F"
C        2.67735744       1.08523394       2.98434338
N        2.06187448       1.26676744       1.67935541
C        2.86024742       1.99553528       0.71257343
C        0.81373498       0.85990983       1.43862454
C        0.06556808       0.94675374       0.29236548
C       -1.38838162       1.21618134       0.53771820
C       -1.94462607       2.40860022       0.06689313
C       -3.25716908       2.74542525       0.35554698
C       -4.04131354       1.89889466       1.12468080
C       -3.50289381       0.71353341       1.60283793
C       -2.18979982       0.37566081       1.30875469
H        3.58288914       0.48280886       2.89960351
H        2.94585073       2.05528737       3.40639439
H        1.98432288       0.59114639       3.66008865
H        2.25635824       2.29294151      -0.13910138
H        3.69479791       1.38381125       0.36442877
H        3.26413598       2.89325370       1.18607086
H        0.34189922       0.43287329       2.32154406
H        0.48626843       1.54227423      -0.51854580
H        0.03075685      -0.77078257      -0.73269096
H       -1.32927567       3.09119750      -0.50711124
H       -3.66131250       3.68014822      -0.00922518
H       -5.06165293       2.16636788       1.35950517
H       -4.10852186       0.04964252       2.20627181
H       -1.77834704      -0.54791012       1.70236944
C        2.39559910      -1.13597963      -1.46139847
C        1.14583222      -1.85438864      -1.92687027
N       -0.09827570      -1.44067972      -1.17592039
C       -0.53734086      -2.53951137      -0.25185316
C        0.49640778      -2.89392645       0.79597712
C       -1.22733633      -1.18492643      -2.13900030
C       -1.00422658       0.01462302      -3.03540166
H        3.24336981      -1.51801162      -2.03067164
H        2.59365855      -1.29381935      -0.40136675
H        2.32033336      -0.06551050      -1.64656738
H        1.24887232      -2.93314045      -1.82809868
H        0.97672122      -1.65742183      -2.98150655
H       -0.78648829      -3.40353760      -0.86765211
H       -1.45740233      -2.18916689       0.21139823
H        0.74517993      -2.03269839       1.41171273
H        1.41206093      -3.29293942       0.35940643
H        0.08178079      -3.66352695       1.44595436
H       -1.36847428      -2.09658127      -2.72043899
H       -2.11491767      -1.03457770      -1.52734255
H       -0.93491601       0.93180370      -2.45534284
H       -0.12073817      -0.07990448      -3.66659307
H       -1.86424243       0.10725727      -3.69761911
47
Properties=species:S:1:pos:R:3 charge=1 spin=1 pbc="F F F"
C        2.67737897       1.08518720       2.98481328
N        2.06020944       1.26682609       1.67924376
C        2.86033222       1.99575352       0.71211211
C        0.81629340       0.86010067       1.44125562
C        0.06495565       0.94342347       0.28791442
C       -1.38907829       1.21724697       0.53831507
C       -1.94445682       2.40887078       0.06714324
C       -3.25727581       2.74552059       0.35557980
C       -4.04113846       1.89892457       1.12460631
C       -3.50278132       0.71344308       1.60276675
C       -2.18952684       0.37574001       1.30891416
H        3.58248297       0.48316679       2.89750860
H        2.94554407       2.05560495       3.40533734
H        1.98454865       0.59085307       3.66038446
H        2.25691855       2.29241603      -0.13985663
H        3.69395515       1.38248544       0.36582384
H        3.26334049       2.89272278       1.18695417
H        0.34399615       0.42928803       2.32179561
H        0.48481695       1.54799620      -0.51616650
H        0.03895844      -0.69441792      -0.67788459
H       -1.32971826       3.09117132      -0.50777267
H       -3.66149529       3.67998063      -0.00957080
H       -5.06153199       2.16628863       1.35941623
H       -4.10834968       0.04935724       2.20593053
H       -1.77858290      -0.54841201       1.70160261
C        2.39549203      -1.13607042      -1.46149927
C        1.14460780      -1.85476991      -1.92656503
N       -0.09862808      -1.44373349      -1.17809616
C       -0.53701679      -2.53907137      -0.25317388
C        0.49618621      -2.89394436       0.79589901
C       -1.22635613      -1.18578908      -2.13857922
C       -1.00436431       0.01447394      -3.03537195
H        3.24420659      -1.51727774      -2.03018888
H        2.59362742      -1.29421770      -0.40111633
H        2.32004336      -0.06526000      -1.64698332
H        1.25187269      -2.93404192      -1.83003867
H        0.97844577      -1.65803460      -2.98209863
H       -0.78737370      -3.40726272      -0.86456646
H       -1.45744254      -2.19013597       0.21135930
H        0.74559580      -2.03244274       1.41201532
H        1.41224857      -3.29234799       0.35946059
H        0.08240873      -3.66350855       1.44660026
H       -1.37220189      -2.09563341      -2.72366235
H       -2.11509166      -1.03484037      -1.52803275
H       -0.93453717       0.93204603      -2.45546578
H       -0.12057633      -0.07981588      -3.66631442
H       -1.86408752       0.10796618      -3.69799726
47
Properties=species:S:1:pos:R:3 charge=1 spin=1 pbc="F F F"
C        2.67740050       1.08514046       2.98528318
N        2.05854441       1.26688475       1.67913210
C        2.86041703       1.99597175       0.71165079
C        0.81885182       0.86029151       1.44388669
C        0.06434322       0.94009320       0.28346337
C       -1.38977497       1.21831260       0.53891193
C       -1.94428757       2.40914135       0.06739336
C       -3.25738255       2.74561593       0.35561262
C       -4.04096338       1.89895449       1.12453183
C       -3.50266883       0.71335274       1.60269557
C       -2.18925386       0.37581921       1.30907364
H        3.58207679       0.48352472       2.89541369
H        2.94523742       2.05592254       3.40428030
H        1.98477442       0.59055975       3.66068028
H        2.25747887       2.29189055      -0.14061188
H        3.69311239       1.38115962       0.36721891
H        3.26254499       2.89219185       1.18783748
H        0.34609308       0.42570277       2.32204716
H        0.48336548       1.55371818      -0.51378720
H        0.04716004      -0.61805327      -0.62307823
H       -1.33016086       3.09114513      -0.50843409
H       -3.66167808       3.67981303      -0.00991642
H       -5.06141105       2.16620937       1.35932730
H       -4.10817751       0.04907196       2.20558925
H       -1.77881876      -0.54891389       1.70083578
C        2.39538496      -1.13616122      -1.46160007
C        1.14338337      -1.85515119      -1.92625979
N       -0.09898046      -1.44678727      -1.18027193
C       -0.53669272      -2.53863136      -0.25449459
C        0.49596463      -2.89396227       0.79582091
C       -1.22537593      -1.18665174      -2.13815814
C       -1.00450204       0.01432486      -3.03534225
H        3.24504338      -1.51654385      -2.02970612
H        2.59359630      -1.29461605      -0.40086591
H        2.31975337      -0.06500951      -1.64739926
H        1.25487307      -2.93494338      -1.83197867
H        0.98017032      -1.65864737      -2.98269071
H       -0.78825910      -3.41098784      -0.86148082
H       -1.45748274      -2.19110505       0.21132036
H        0.74601168      -2.03218708       1.41231791
H        1.41243621      -3.29175655       0.35951475
H        0.08303668      -3.66349015       1.44724616
H       -1.37592950      -2.09468555      -2.72688571
H       -2.11526566      -1.03510304      -1.52872295
H       -0.93415833       0.93228836      -2.45558872
H       -0.12041450      -0.07972727      -3.66603577
H       -1.86393261       0.10867508      -3.69837542
47
Properties=species:S:1:pos:R:3 charge=1 spin=1 pbc="F F F"
C        2.67742203       1.08509372       2.98575308
N        2.05687937       1.26694340       1.67902045
C        2.86050183       1.99618999       0.71118948
C        0.82141024       0.86048234       1.44651777
C        0.06373079       0.93676292       0.27901231
C       -1.39047165       1.21937823       0.53950880
C       -1.94411832       2.40941191       0.06764348
C       -3.25748929       2.74571127       0.35564543
C       -4.04078829       1.89898440       1.12445735
C       -3.50255633       0.71326241       1.60262439
C       -2.18898088       0.37589840       1.30923311
H        3.58167062       0.48388265       2.89331878
H        2.94493077       2.05624012       3.40322325
H        1.98500019       0.59026643       3.66097609
H        2.25803918       2.29136507      -0.14136714
H        3.69226963       1.37983381       0.36861398
H        3.26174950       2.89166093       1.18872079
H        0.34819001       0.42211752       2.32229871
H        0.48191400       1.55944015      -0.51140791
H        0.05536163      -0.54168863      -0.56827186
H       -1.33060345       3.09111895      -0.50909552
H       -3.66186087       3.67964544      -0.01026204
H       -5.06129011       2.16613012       1.35923836
H       -4.10800534       0.04878669       2.20524797
H       -1.77905462      -0.54941578       1.70006894
C        2.39527789      -1.13625201      -1.46170087
C        1.14215895      -1.85553246      -1.92595455
N       -0.09933283      -1.44984105      -1.18244769
C       -0.53636864      -2.53819136      -0.25581530
C        0.49574305      -2.89398018       0.79574280
C       -1.22439572      -1.18751440      -2.13773706
C       -1.00463977       0.01417578      -3.03531255
H        3.24588017      -1.51580997      -2.02922336
H        2.59356517      -1.29501440      -0.40061549
H        2.31946337      -0.06475901      -1.64781521
H        1.25787344      -2.93584484      -1.83391867
H        0.98189488      -1.65926014      -2.98328280
H       -0.78914451      -3.41471296      -0.85839517
H       -1.45752295      -2.19207413       0.21128143
H        0.74642755      -2.03193143       1.41262050
H        1.41262385      -3.29116512       0.35956892
H        0.08366462      -3.66347174       1.44789207
H       -1.37965711      -2.09373769      -2.73010907
H       -2.11543965      -1.03536571      -1.52941316
H       -0.93377948       0.93253069      -2.45571166
H       -0.12025266      -0.07963867      -3.66575712
H       -1.86377769       0.10938399      -3.69875357
47
Properties=species:S:1:pos:R:3 charge=1 spin=1 pbc="F F F"
C        2.67744356       1.08504697       2.98622297
N        2.05521433       1.26700206       1.67890880
C        2.86058663       1.99640823       0.71072816
C        0.82396866       0.86067318       1.44914885
C        0.06311836       0.93343265       0.27456126
C       -1.39116833       1.22044387       0.54010567
C       -1.94394908       2.40968247       0.06789360
C       -3.25759603       2.74580661       0.35567825
C       -4.04061321       1.89901432       1.12438287
C       -3.50244384       0.71317208       1.60255320
C       -2.18870790       0.37597760       1.30939259
H        3.58126445       0.48424058       2.89122387
H        2.94462412       2.05655770       3.40216620
H        1.98522596       0.58997310       3.66127190
H        2.25859950       2.29083960      -0.14212239
H        3.69142687       1.37850799       0.37000906
H        3.26095401       2.89113000       1.18960410
H        0.35028695       0.41853226       2.32255027
H        0.48046253       1.56516212      -0.50902861
H        0.06356323      -0.46532398      -0.51346549
H       -1.33104605       3.09109277      -0.50975694
H       -3.66204366       3.67947785      -0.01060766
H       -5.06116916       2.16605086       1.35914943
H       -4.10783317       0.04850141       2.20490670
H       -1.77929048      -0.54991766       1.69930211
C        2.39517083      -1.13634281      -1.46180167
C        1.14093453      -1.85591374      -1.92564931
N       -0.09968521      -1.45289483      -1.18462346
C       -0.53604457      -2.53775136      -0.25713601
C        0.49552147      -2.89399809       0.79566469
C       -1.22341552      -1.18837706      -2.13731597
C       -1.00477750       0.01402669      -3.03528285
H        3.24671696      -1.51507608      -2.02874061
H        2.59353405      -1.29541274      -0.40036507
H        2.31917337      -0.06450851      -1.64823115
H        1.26087382      -2.93674630      -1.83585867
H        0.98361943      -1.65987290      -2.98387488
H       -0.79002991      -3.41843808      -0.85530953
H       -1.45756316      -2.19304322       0.21124250
H        0.74684343      -2.03167578       1.41292310
H        1.41281150      -3.29057368       0.35962308
H        0.08429256      -3.66345334       1.44853797
H       -1.38338472      -2.09278984      -2.73333243
H       -2.11561365      -1.03562838      -1.53010336
H       -0.93340064       0.93277301      -2.45583459
H       -0.12009083      -0.07955006      -3.66547847
H       -1.86362278       0.11009289      -3.69913173
47
Properties=species:S:1:pos:R:3 charge=1 spin=1 pbc="F F F"
C        2.67746509       1.08500023       2.98669287
N        2.05354929       1.26706071       1.67879714
C        2.86067144       1.99662647       0.71026685
C        0.82652708       0.86086402       1.45177992
C        0.06250593       0.93010237       0.27011020
C       -1.39186500       1.22150950       0.54070254
C       -1.94377983       2.40995304       0.06814371
C       -3.25770276       2.74590195       0.35571107
C       -4.04043812       1.89904423       1.12430838
C       -3.50233135       0.71308174       1.60248202
C       -2.18843492       0.37605680       1.30955206
H        3.58085827       0.48459851       2.88912896
H        2.94431746       2.05687529       3.40110916
H        1.98545173       0.58967978       3.66156772
H        2.25915981       2.29031412      -0.14287764
H        3.69058411       1.37718218       0.37140413
H        3.26015852       2.89059908       1.19048741
H        0.35238388       0.41494701       2.32280182
H        0.47901105       1.57088410      -0.50664932
H        0.07176482      -0.38895934      -0.45865912
H       -1.33148864       3.09106658      -0.51041837
H       -3.66222645       3.67931025      -0.01095328
H       -5.06104822       2.16597161       1.35906049
H       -4.10766099       0.04821614       2.20456542
H       -1.77952634      -0.55041955       1.69853527
C        2.39506376      -1.13643360      -1.46190247
C        1.13971010      -1.85629501      -1.92534407
N       -0.10003759      -1.45594860      -1.18679923
C       -0.53572049      -2.53731135      -0.25845673
C        0.49529990      -2.89401600       0.79558659
C       -1.22243532      -1.18923972      -2.13689489
C       -1.00491523       0.01387761      -3.03525315
H        3.24755374      -1.51434220      -2.02825785
H        2.59350292      -1.29581109      -0.40011465
H        2.31888338      -0.06425802      -1.64864709
H        1.26387419      -2.93764777      -1.83779866
H        0.98534399      -1.66048567      -2.98446697
H       -0.79091532      -3.42216320      -0.85222388
H       -1.45760336      -2.19401230       0.21120357
H        0.74725930      -2.03142013       1.41322569
H        1.41299914      -3.28998225       0.35967725
H        0.08492051      -3.66343493       1.44918387
H       -1.38711233      -2.09184198      -2.73655579
H       -2.11578764      -1.03589105      -1.53079356
H       -0.93302179       0.93301534      -2.45595753
H       -0.11992899      -0.07946146      -3.66519982
H       -1.86346786       0.11080180      -3.69950988
47
Properties=species:S:1:pos:R:3 charge=1 spin=1 pbc="F F F"
C        2.67748662       1.08495349       2.98716277
N        2.05188425       1.26711937       1.67868549
C        2.86075624       1.99684471       0.70980553
C        0.82908550       0.86105486       1.45441100
C        0.06189350       0.92677210       0.26565915
C       -1.39256168       1.22257513       0.54129941
C       -1.94361058       2.41022360       0.06839383
C       -3.25780950       2.74599729       0.35574389
C       -4.04026304       1.89907415       1.12423390
C       -3.50221886       0.71299141       1.60241084
C       -2.18816194       0.37613600       1.30971154
H        3.58045210       0.48495644       2.88703405
H        2.94401081       2.05719287       3.40005211
H        1.98567750       0.58938646       3.66186353
H        2.25972013       2.28978864      -0.14363289
H        3.68974135       1.37585636       0.37279920
H        3.25936303       2.89006815       1.19137072
H        0.35448081       0.41136175       2.32305337
H        0.47755958       1.57660607      -0.50427002
H        0.07996642      -0.31259469      -0.40385275
H       -1.33193124       3.09104040      -0.51107979
H       -3.66240924       3.67914266      -0.01129890
H       -5.06092728       2.16589235       1.35897156
H       -4.10748882       0.04793086       2.20422414
H       -1.77976220      -0.55092143       1.69776844
C        2.39495669      -1.13652440      -1.46200327
C        1.13848568      -1.85667629      -1.92503883
N       -0.10038997      -1.45900238      -1.18897500
C       -0.53539642      -2.53687135      -0.25977744
C        0.49507832      -2.89403391       0.79550848
C       -1.22145512      -1.19010238      -2.13647381
C       -1.00505296       0.01372853      -3.03522345
H        3.24839053      -1.51360831      -2.02777509
H        2.59347180      -1.29620944      -0.39986423
H        2.31859338      -0.06400752      -1.64906303
H        1.26687457      -2.93854923      -1.83973866
H        0.98706854      -1.66109844      -2.98505905
H       -0.79180072      -3.42588832      -0.84913824
H       -1.45764357      -2.19498138       0.21116464
H        0.74767518      -2.03116448       1.41352828
H        1.41318678      -3.28939081       0.35973141
H        0.08554845      -3.66341653       1.44982977
H       -1.39083994      -2.09089412      -2.73977915
H       -2.11596164      -1.03615372      -1.53148376
H       -0.93264295       0.93325767      -2.45608047
H       -0.11976716      -0.07937285      -3.66492117
H       -1.86331295       0.11151070      -3.69988804
