47
Properties=species:S:1:pos:R:3 charge=1 spin=1 pbc="F F F"
C        2.67877114       1.09074669       2.98531051
N        2.05314561       1.27301920       1.67685884
C        2.86197676       2.00282220       0.70800134
C        0.83036695       0.86691151       1.45255086
C        0.06320805       0.93264824       0.26377977
C       -1.39125012       1.22847698       0.53937609
C       -1.94225383       2.41614900       0.06647636
C       -3.25645479       2.75194835       0.35378664
C       -4.03895565       1.90502769       1.12223130
C       -3.50095642       0.71892256       1.60040317
C       -2.18689714       0.38204169       1.30774364
H        3.58177650       0.49082219       2.88510474
H        2.94523067       2.06295517       3.39831303
H        1.98700206       0.59504839       3.65995603
H        2.26075123       2.29633724      -0.14511244
H        3.69063081       1.38168015       0.37046146
H        3.26105309       2.89571013       1.18979278
H        0.35575964       0.41717028       2.32116681
H        0.47891727       1.58246334      -0.50614263
H        0.08128004      -0.30671807      -0.40573525
H       -1.33053808       3.09696251      -0.51296263
H       -3.66101956       3.68511058      -0.01325187
H       -5.05962201       2.17186504       1.35693785
H       -4.10626335       0.05386394       2.20218151
H       -1.77853347      -0.54503303       1.69579683
C        2.39627482      -1.13062016      -1.46389401
C        1.13980805      -1.85077354      -1.92693900
N       -0.09906893      -1.45312008      -1.19086657
C       -0.53405948      -2.53100159      -0.26167631
C        0.49642609      -2.88817166       0.79359655
C       -1.22014124      -1.18422736      -2.13835954
C       -1.00375847       0.01961384      -3.03709991
H        3.24970978      -1.50768784      -2.02967507
H        2.59479407      -1.29032401      -0.40175847
H        2.31990166      -0.05810033      -1.65093380
H        1.26820407      -2.93264715      -1.84165757
H        0.98838772      -1.65517849      -2.98695548
H       -0.79046430      -3.42001361      -0.85104426
H       -1.45630461      -2.18912256       0.20927774
H        0.74902589      -2.02530861       1.41162392
H        1.41453169      -3.28352135       0.35780697
H        0.08690433      -3.65756294       1.44791274
H       -1.38951610      -2.08501682      -2.74167105
H       -2.11464773      -1.03029560      -1.53336521
H       -0.93135188       0.93913787      -2.45794843
H       -0.11847788      -0.07347331      -3.66680692
H       -1.86202590       0.11739407      -3.70175518
47
Properties=species:S:1:pos:R:3 charge=1 spin=1 pbc="F F F"
C        2.68005567       1.09653989       2.98345825
N        2.05440697       1.27891903       1.67503218
C        2.86319728       2.00879969       0.70619716
C        0.83164839       0.87276815       1.45069072
C        0.06452260       0.93852438       0.26190038
C       -1.38993855       1.23437883       0.53745278
C       -1.94089707       2.42207439       0.06455890
C       -3.25510008       2.75789942       0.35182939
C       -4.03764825       1.91098123       1.12022869
C       -3.49969398       0.72485372       1.59839550
C       -2.18563234       0.38794738       1.30577574
H        3.58310089       0.49668794       2.88317543
H        2.94645053       2.06871747       3.39657395
H        1.98832663       0.60071033       3.65804853
H        2.26178234       2.30288585      -0.14659198
H        3.69152028       1.38750394       0.36812373
H        3.26274316       2.90135211       1.18821485
H        0.35703848       0.42297880       2.31928025
H        0.48027497       1.58832061      -0.50801524
H        0.08259366      -0.30084144      -0.40761775
H       -1.32914492       3.10288462      -0.51484548
H       -3.65962989       3.69107850      -0.01520485
H       -5.05831673       2.17783772       1.35490414
H       -4.10503789       0.05979701       2.20013889
H       -1.77730473      -0.53914463       1.69382522
C        2.39759294      -1.12471591      -1.46578475
C        1.14113042      -1.84487080      -1.92883916
N       -0.09774788      -1.44723778      -1.19275814
C       -0.53272255      -2.52513182      -0.26357519
C        0.49777386      -2.88230942       0.79168462
C       -1.21882736      -1.17835233      -2.14024527
C       -1.00246398       0.02549914      -3.03897637
H        3.25102902      -1.50176737      -2.03157506
H        2.59611635      -1.28443858      -0.40365271
H        2.32120994      -0.05219314      -1.65280456
H        1.26953358      -2.92674508      -1.84357648
H        0.98970691      -1.64925854      -2.98885191
H       -0.78912788      -3.41413890      -0.85295029
H       -1.45496564      -2.18326374       0.20739085
H        0.75037659      -2.01945274       1.40971957
H        1.41587660      -3.27765189       0.35588252
H        0.08826021      -3.65170934       1.44599572
H       -1.38819226      -2.07913953      -2.74356295
H       -2.11333382      -1.02443748      -1.53524666
H       -0.93006080       0.94501808      -2.45981638
H       -0.11718859      -0.06757376      -3.66869267
H       -1.86073885       0.12327743      -3.70362233
47
Properties=species:S:1:pos:R:3 charge=1 spin=1 pbc="F F F"
C        2.68134019       1.10233308       2.98160599
N        2.05566833       1.28481886       1.67320553
C        2.86441781       2.01477719       0.70439297
C        0.83292984       0.87862480       1.44883057
C        0.06583715       0.94440051       0.26002100
C       -1.38862699       1.24028067       0.53552946
C       -1.93954032       2.42799979       0.06264143
C       -3.25374537       2.76385048       0.34987214
C       -4.03634086       1.91693477       1.11822609
C       -3.49843155       0.73078487       1.59638782
C       -2.18436755       0.39385307       1.30380783
H        3.58442529       0.50255369       2.88124612
H        2.94767039       2.07447977       3.39483486
H        1.98965119       0.60637226       3.65614102
H        2.26281344       2.30943445      -0.14807153
H        3.69240974       1.39332773       0.36578599
H        3.26443322       2.90699409       1.18663691
H        0.35831731       0.42878733       2.31739369
H        0.48163266       1.59417789      -0.50988785
H        0.08390727      -0.29496482      -0.40950024
H       -1.32775176       3.10880673      -0.51672832
H       -3.65824021       3.69704642      -0.01715782
H       -5.05701146       2.18381041       1.35287043
H       -4.10381242       0.06573009       2.19809626
H       -1.77607600      -0.53325622       1.69185362
C        2.39891107      -1.11881167      -1.46767548
C        1.14245280      -1.83896805      -1.93073933
N       -0.09642684      -1.44135549      -1.19464970
C       -0.53138561      -2.51926206      -0.26547406
C        0.49912162      -2.87644717       0.78977269
C       -1.21751347      -1.17247731      -2.14213099
C       -1.00116949       0.03138445      -3.04085283
H        3.25234827      -1.49584691      -2.03347504
H        2.59743862      -1.27855315      -0.40554695
H        2.32251822      -0.04628596      -1.65467533
H        1.27086308      -2.92084300      -1.84549540
H        0.99102609      -1.64333859      -2.99074834
H       -0.78779146      -3.40826419      -0.85485631
H       -1.45362668      -2.17740492       0.20550395
H        0.75172730      -2.01359687       1.40781521
H        1.41722151      -3.27178243       0.35395808
H        0.08961610      -3.64585575       1.44407869
H       -1.38686843      -2.07326223      -2.74545486
H       -2.11201992      -1.01857936      -1.53712810
H       -0.92876973       0.95089828      -2.46168434
H       -0.11589931      -0.06167422      -3.67057842
H       -1.85945180       0.12916080      -3.70548947
47
Properties=species:S:1:pos:R:3 charge=1 spin=1 pbc="F F F"
C        2.68262471       1.10812628       2.97975372
N        2.05692969       1.29071869       1.67137887
C        2.86563833       2.02075468       0.70258879
C        0.83421129       0.88448145       1.44697043
C        0.06715170       0.95027665       0.25814161
C       -1.38731542       1.24618252       0.53360614
C       -1.93818357       2.43392519       0.06072396
C       -3.25239066       2.76980155       0.34791489
C       -4.03503347       1.92288831       1.11622348
C       -3.49716911       0.73671603       1.59438015
C       -2.18310275       0.39975877       1.30183993
H        3.58574968       0.50841943       2.87931681
H        2.94889025       2.08024207       3.39309578
H        1.99097576       0.61203419       3.65423352
H        2.26384455       2.31598305      -0.14955107
H        3.69329920       1.39915152       0.36344825
H        3.26612329       2.91263606       1.18505897
H        0.35959614       0.43459585       2.31550714
H        0.48299035       1.60003516      -0.51176046
H        0.08522089      -0.28908820      -0.41138274
H       -1.32635860       3.11472885      -0.51861117
H       -3.65685053       3.70301433      -0.01911079
H       -5.05570618       2.18978310       1.35083672
H       -4.10258695       0.07166316       2.19605363
H       -1.77484726      -0.52736782       1.68988201
C        2.40022920      -1.11290742      -1.46956622
C        1.14377517      -1.83306530      -1.93263949
N       -0.09510579      -1.43547319      -1.19654127
C       -0.53004868      -2.51339229      -0.26737294
C        0.50046939      -2.87058493       0.78786076
C       -1.21619959      -1.16660229      -2.14401672
C       -0.99987501       0.03726975      -3.04272928
H        3.25366751      -1.48992644      -2.03537503
H        2.59876089      -1.27266772      -0.40744119
H        2.32382650      -0.04037877      -1.65654609
H        1.27219258      -2.91494092      -1.84741431
H        0.99234528      -1.63741864      -2.99264476
H       -0.78645504      -3.40238948      -0.85676234
H       -1.45228772      -2.17154610       0.20361705
H        0.75307800      -2.00774100       1.40591086
H        1.41856641      -3.26591297       0.35203363
H        0.09097198      -3.64000216       1.44216167
H       -1.38554459      -2.06738494      -2.74734676
H       -2.11070601      -1.01272124      -1.53900955
H       -0.92747866       0.95677849      -2.46355230
H       -0.11461002      -0.05577467      -3.67246417
H       -1.85816475       0.13504417      -3.70735662
47
Properties=species:S:1:pos:R:3 charge=1 spin=1 pbc="F F F"
C        2.68390924       1.11391948       2.97790146
N        2.05819105       1.29661852       1.66955222
C        2.86685885       2.02673217       0.70078460
C        0.83549273       0.89033809       1.44511029
C        0.06846625       0.95615279       0.25626223
C       -1.38600386       1.25208437       0.53168282
C       -1.93682682       2.43985059       0.05880650
C       -3.25103596       2.77575261       0.34595764
C       -4.03372608       1.92884185       1.11422088
C       -3.49590667       0.74264718       1.59237248
C       -2.18183795       0.40566446       1.29987203
H        3.58707408       0.51428518       2.87738750
H        2.95011010       2.08600437       3.39135670
H        1.99230032       0.61769612       3.65232602
H        2.26487565       2.32253166      -0.15103062
H        3.69418866       1.40497530       0.36111052
H        3.26781335       2.91827804       1.18348104
H        0.36087497       0.44040438       2.31362058
H        0.48434805       1.60589243      -0.51363306
H        0.08653451      -0.28321157      -0.41326524
H       -1.32496544       3.12065096      -0.52049401
H       -3.65546086       3.70898225      -0.02106377
H       -5.05440091       2.19575578       1.34880301
H       -4.10136148       0.07759624       2.19401100
H       -1.77361853      -0.52147942       1.68791040
C        2.40154733      -1.10700318      -1.47145696
C        1.14509754      -1.82716255      -1.93453966
N       -0.09378475      -1.42959089      -1.19843284
C       -0.52871174      -2.50752253      -0.26927181
C        0.50181716      -2.86472268       0.78594883
C       -1.21488571      -1.16072727      -2.14590245
C       -0.99858052       0.04315506      -3.04460574
H        3.25498676      -1.48400597      -2.03727501
H        2.60008317      -1.26678229      -0.40933544
H        2.32513478      -0.03447158      -1.65841686
H        1.27352209      -2.90903885      -1.84933322
H        0.99366446      -1.63149869      -2.99454119
H       -0.78511862      -3.39651477      -0.85866836
H       -1.45094875      -2.16568728       0.20173015
H        0.75442871      -2.00188514       1.40400650
H        1.41991132      -3.26004351       0.35010919
H        0.09232786      -3.63414857       1.44024464
H       -1.38422075      -2.06150764      -2.74923866
H       -2.10939210      -1.00686312      -1.54089100
H       -0.92618758       0.96265869      -2.46542026
H       -0.11332074      -0.04987513      -3.67434992
H       -1.85687770       0.14092754      -3.70922376
47
Properties=species:S:1:pos:R:3 charge=1 spin=1 pbc="F F F"
C        2.68519376       1.11971268       2.97604920
N        2.05945241       1.30251835       1.66772557
C        2.86807937       2.03270966       0.69898041
C        0.83677418       0.89619474       1.44325015
C        0.06978080       0.96202893       0.25438285
C       -1.38469230       1.25798622       0.52975951
C       -1.93547006       2.44577598       0.05688903
C       -3.24968125       2.78170368       0.34400039
C       -4.03241868       1.93479539       1.11221827
C       -3.49464423       0.74857833       1.59036481
C       -2.18057315       0.41157015       1.29790413
H        3.58839848       0.52015093       2.87545819
H        2.95132996       2.09176667       3.38961762
H        1.99362488       0.62335806       3.65041852
H        2.26590676       2.32908026      -0.15251016
H        3.69507813       1.41079909       0.35877278
H        3.26950342       2.92392002       1.18190310
H        0.36215381       0.44621291       2.31173402
H        0.48570574       1.61174970      -0.51550567
H        0.08784813      -0.27733495      -0.41514774
H       -1.32357229       3.12657307      -0.52237686
H       -3.65407118       3.71495017      -0.02301674
H       -5.05309563       2.20172847       1.34676930
H       -4.10013602       0.08352931       2.19196838
H       -1.77238979      -0.51559102       1.68593879
C        2.40286545      -1.10109894      -1.47334770
C        1.14641991      -1.82125981      -1.93643983
N       -0.09246370      -1.42370859      -1.20032441
C       -0.52737481      -2.50165276      -0.27117069
C        0.50316493      -2.85886044       0.78403690
C       -1.21357183      -1.15485224      -2.14778818
C       -0.99728603       0.04904036      -3.04648220
H        3.25630600      -1.47808550      -2.03917499
H        2.60140544      -1.26089686      -0.41122968
H        2.32644305      -0.02856439      -1.66028762
H        1.27485159      -2.90313677      -1.85125213
H        0.99498364      -1.62557874      -2.99643762
H       -0.78378220      -3.39064006      -0.86057439
H       -1.44960979      -2.15982847       0.19984326
H        0.75577941      -1.99602927       1.40210215
H        1.42125623      -3.25417405       0.34818474
H        0.09368374      -3.62829497       1.43832762
H       -1.38289691      -2.05563035      -2.75113056
H       -2.10807819      -1.00100500      -1.54277245
H       -0.92489651       0.96853890      -2.46728821
H       -0.11203146      -0.04397558      -3.67623567
H       -1.85559065       0.14681090      -3.71109091
47
Properties=species:S:1:pos:R:3 charge=1 spin=1 pbc="F F F"
C        2.68647828       1.12550588       2.97419694
N        2.06071377       1.30841818       1.66589891
C        2.86929989       2.03868716       0.69717623
C        0.83805563       0.90205139       1.44139000
C        0.07109535       0.96790506       0.25250346
C       -1.38338073       1.26388807       0.52783619
C       -1.93411331       2.45170138       0.05497156
C       -3.24832654       2.78765474       0.34204314
C       -4.03111129       1.94074893       1.11021567
C       -3.49338180       0.75450949       1.58835714
C       -2.17930836       0.41747584       1.29593622
H        3.58972287       0.52601668       2.87352888
H        2.95254982       2.09752897       3.38787854
H        1.99494945       0.62901999       3.64851102
H        2.26693786       2.33562886      -0.15398971
H        3.69596759       1.41662288       0.35643504
H        3.27119348       2.92956200       1.18032516
H        0.36343264       0.45202143       2.30984746
H        0.48706343       1.61760698      -0.51737828
H        0.08916175      -0.27145833      -0.41703023
H       -1.32217913       3.13249518      -0.52425970
H       -3.65268150       3.72091809      -0.02496971
H       -5.05179036       2.20770116       1.34473559
H       -4.09891055       0.08946239       2.18992575
H       -1.77116106      -0.50970262       1.68396718
C        2.40418358      -1.09519469      -1.47523843
C        1.14774229      -1.81535706      -1.93833999
N       -0.09114266      -1.41782630      -1.20221598
C       -0.52603787      -2.49578300      -0.27306956
C        0.50451270      -2.85299819       0.78212497
C       -1.21225794      -1.14897722      -2.14967390
C       -0.99599154       0.05492567      -3.04835866
H        3.25762525      -1.47216504      -2.04107498
H        2.60272771      -1.25501143      -0.41312392
H        2.32775133      -0.02265721      -1.66215839
H        1.27618109      -2.89723469      -1.85317104
H        0.99630283      -1.61965879      -2.99833405
H       -0.78244578      -3.38476535      -0.86248041
H       -1.44827083      -2.15396965       0.19795636
H        0.75713012      -1.99017340       1.40019779
H        1.42260114      -3.24830459       0.34626030
H        0.09503962      -3.62244138       1.43641059
H       -1.38157308      -2.04975305      -2.75302246
H       -2.10676428      -0.99514688      -1.54465390
H       -0.92360544       0.97441910      -2.46915617
H       -0.11074217      -0.03807604      -3.67812142
H       -1.85430360       0.15269427      -3.71295805
47
Properties=species:S:1:pos:R:3 charge=1 spin=1 pbc="F F F"
C        2.68776280       1.13129907       2.97234468
N        2.06197513       1.31431801       1.66407226
C        2.87052042       2.04466465       0.69537204
C        0.83933707       0.90790803       1.43952986
C        0.07240990       0.97378120       0.25062408
C       -1.38206917       1.26978992       0.52591287
C       -1.93275656       2.45762678       0.05305409
C       -3.24697183       2.79360581       0.34008589
C       -4.02980390       1.94670247       1.10821306
C       -3.49211936       0.76044064       1.58634947
C       -2.17804356       0.42338153       1.29396832
H        3.59104727       0.53188243       2.87159957
H        2.95376968       2.10329127       3.38613945
H        1.99627401       0.63468192       3.64660352
H        2.26796897       2.34217746      -0.15546926
H        3.69685705       1.42244667       0.35409731
H        3.27288355       2.93520398       1.17874723
H        0.36471147       0.45782996       2.30796090
H        0.48842113       1.62346425      -0.51925089
H        0.09047536      -0.26558171      -0.41891273
H       -1.32078597       3.13841729      -0.52614255
H       -3.65129183       3.72688601      -0.02692269
H       -5.05048508       2.21367384       1.34270189
H       -4.09768508       0.09539546       2.18788312
H       -1.76993232      -0.50381421       1.68199557
C        2.40550171      -1.08929045      -1.47712917
C        1.14906466      -1.80945431      -1.94024016
N       -0.08982161      -1.41194400      -1.20410755
C       -0.52470094      -2.48991323      -0.27496844
C        0.50586047      -2.84713595       0.78021304
C       -1.21094406      -1.14310220      -2.15155963
C       -0.99469705       0.06081097      -3.05023512
H        3.25894449      -1.46624457      -2.04297496
H        2.60404999      -1.24912600      -0.41501816
H        2.32905961      -0.01675002      -1.66402915
H        1.27751059      -2.89133262      -1.85508996
H        0.99762201      -1.61373884      -3.00023048
H       -0.78110936      -3.37889064      -0.86438644
H       -1.44693187      -2.14811083       0.19606946
H        0.75848082      -1.98431753       1.39829344
H        1.42394605      -3.24243513       0.34433586
H        0.09639550      -3.61658779       1.43449356
H       -1.38024924      -2.04387576      -2.75491437
H       -2.10545037      -0.98928876      -1.54653535
H       -0.92231437       0.98029931      -2.47102413
H       -0.10945289      -0.03217650      -3.68000717
H       -1.85301655       0.15857764      -3.71482520
47
Properties=species:S:1:pos:R:3 charge=1 spin=1 pbc="F F F"
C        2.68904733       1.13709227       2.97049242
N        2.06323648       1.32021784       1.66224560
C        2.87174094       2.05064214       0.69356786
C        0.84061852       0.91376468       1.43766972
C        0.07372445       0.97965734       0.24874469
C       -1.38075760       1.27569176       0.52398956
C       -1.93139981       2.46355218       0.05113663
C       -3.24561712       2.79955687       0.33812864
C       -4.02849651       1.95265601       1.10621046
C       -3.49085692       0.76637180       1.58434179
C       -2.17677876       0.42928722       1.29200042
H        3.59237167       0.53774818       2.86967026
H        2.95498954       2.10905357       3.38440037
H        1.99759858       0.64034385       3.64469601
H        2.26900007       2.34872607      -0.15694880
H        3.69774651       1.42827046       0.35175957
H        3.27457361       2.94084596       1.17716929
H        0.36599031       0.46363848       2.30607434
H        0.48977882       1.62932152      -0.52112350
H        0.09178898      -0.25970508      -0.42079523
H       -1.31939281       3.14433940      -0.52802539
H       -3.64990215       3.73285393      -0.02887566
H       -5.04917981       2.21964653       1.34066818
H       -4.09645962       0.10132854       2.18584049
H       -1.76870359      -0.49792581       1.68002397
C        2.40681984      -1.08338620      -1.47901991
C        1.15038703      -1.80355157      -1.94214033
N       -0.08850057      -1.40606170      -1.20599911
C       -0.52336400      -2.48404347      -0.27686731
C        0.50720823      -2.84127370       0.77830111
C       -1.20963018      -1.13722718      -2.15344536
C       -0.99340256       0.06669628      -3.05211158
H        3.26026374      -1.46032410      -2.04487495
H        2.60537226      -1.24324057      -0.41691240
H        2.33036789      -0.01084283      -1.66589992
H        1.27884010      -2.88543054      -1.85700887
H        0.99894119      -1.60781889      -3.00212691
H       -0.77977294      -3.37301593      -0.86629246
H       -1.44559290      -2.14225201       0.19418256
H        0.75983153      -1.97846166       1.39638908
H        1.42529096      -3.23656567       0.34241141
H        0.09775139      -3.61073419       1.43257654
H       -1.37892540      -2.03799846      -2.75680627
H       -2.10413647      -0.98343064      -1.54841679
H       -0.92102329       0.98617951      -2.47289208
H       -0.10816360      -0.02627695      -3.68189292
H       -1.85172950       0.16446101      -3.71669234
47
Properties=species:S:1:pos:R:3 charge=1 spin=1 pbc="F F F"
C        2.69033185       1.14288547       2.96864016
N        2.06449784       1.32611767       1.66041895
C        2.87296146       2.05661963       0.69176367
C        0.84189996       0.91962133       1.43580958
C        0.07503900       0.98553348       0.24686531
C       -1.37944604       1.28159361       0.52206624
C       -1.93004305       2.46947757       0.04921916
C       -3.24426241       2.80550794       0.33617139
C       -4.02718911       1.95860955       1.10420785
C       -3.48959448       0.77230295       1.58233412
C       -2.17551396       0.43519291       1.29003252
H        3.59369606       0.54361392       2.86774095
H        2.95620940       2.11481587       3.38266129
H        1.99892314       0.64600579       3.64278851
H        2.27003118       2.35527467      -0.15842835
H        3.69863598       1.43409425       0.34942183
H        3.27626368       2.94648794       1.17559135
H        0.36726914       0.46944701       2.30418778
H        0.49113651       1.63517879      -0.52299611
H        0.09310260      -0.25382846      -0.42267773
H       -1.31799965       3.15026151      -0.52990824
H       -3.64851247       3.73882185      -0.03082863
H       -5.04787453       2.22561922       1.33863447
H       -4.09523415       0.10726161       2.18379787
H       -1.76747485      -0.49203741       1.67805236
C        2.40813796      -1.07748196      -1.48091065
C        1.15170940      -1.79764882      -1.94404049
N       -0.08717952      -1.40017940      -1.20789068
C       -0.52202706      -2.47817370      -0.27876619
C        0.50855600      -2.83541146       0.77638918
C       -1.20831630      -1.13135215      -2.15533109
C       -0.99210807       0.07258158      -3.05398804
H        3.26158298      -1.45440363      -2.04677493
H        2.60669453      -1.23735514      -0.41880664
H        2.33167617      -0.00493564      -1.66777068
H        1.28016960      -2.87952846      -1.85892778
H        1.00026038      -1.60189894      -3.00402334
H       -0.77843652      -3.36714122      -0.86819849
H       -1.44425394      -2.13639319       0.19229567
H        0.76118223      -1.97260579       1.39448473
H        1.42663586      -3.23069621       0.34048697
H        0.09910727      -3.60488060       1.43065951
H       -1.37760156      -2.03212117      -2.75869817
H       -2.10282256      -0.97757252      -1.55029824
H       -0.91973222       0.99205971      -2.47476004
H       -0.10687432      -0.02037741      -3.68377867
H       -1.85044245       0.17034437      -3.71855949
47
Properties=species:S:1:pos:R:3 charge=1 spin=1 pbc="F F F"
C        2.68904733       1.13709227       2.97049242
N        2.06323648       1.32021784       1.66224560
C        2.87174094       2.05064214       0.69356786
C        0.84061852       0.91376468       1.43766972
C        0.07372445       0.97965734       0.24874469
C       -1.38075760       1.27569176       0.52398956
C       -1.93139981       2.46355218       0.05113663
C       -3.24561712       2.79955687       0.33812864
C       -4.02849651       1.95265601       1.10621046
C       -3.49085692       0.76637180       1.58434179
C       -2.17677876       0.42928722       1.29200042
H        3.59237167       0.53774818       2.86967026
H        2.95498954       2.10905357       3.38440037
H        1.99759858       0.64034385       3.64469601
H        2.26900007       2.34872607      -0.15694880
H        3.69774651       1.42827046       0.35175957
H        3.27457361       2.94084596       1.17716929
H        0.36599031       0.46363848       2.30607434
H        0.48977882       1.62932152      -0.52112350
H        0.09178898      -0.25970508      -0.42079523
H       -1.31939281       3.14433940      -0.52802539
H       -3.64990215       3.73285393      -0.02887566
H       -5.04917981       2.21964653       1.34066818
H       -4.09645962       0.10132854       2.18584049
H       -1.76870359      -0.49792581       1.68002397
C        2.40681984      -1.08338620      -1.47901991
C        1.15038703      -1.80355157      -1.94214033
N       -0.08850057      -1.40606170      -1.20599911
C       -0.52336400      -2.48404347      -0.27686731
C        0.50720823      -2.84127370       0.77830111
C       -1.20963018      -1.13722718      -2.15344536
C       -0.99340256       0.06669628      -3.05211158
H        3.26026374      -1.46032410      -2.04487495
H        2.60537226      -1.24324057      -0.41691240
H        2.33036789      -0.01084283      -1.66589992
H        1.27884010      -2.88543054      -1.85700887
H        0.99894119      -1.60781889      -3.00212691
H       -0.77977294      -3.37301593      -0.86629246
H       -1.44559290      -2.14225201       0.19418256
H        0.75983153      -1.97846166       1.39638908
H        1.42529096      -3.23656567       0.34241141
H        0.09775139      -3.61073419       1.43257654
H       -1.37892540      -2.03799846      -2.75680627
H       -2.10413647      -0.98343064      -1.54841679
H       -0.92102329       0.98617951      -2.47289208
H       -0.10816360      -0.02627695      -3.68189292
H       -1.85172950       0.16446101      -3.71669234
47
Properties=species:S:1:pos:R:3 charge=1 spin=1 pbc="F F F"
C        2.68776280       1.13129907       2.97234468
N        2.06197513       1.31431801       1.66407226
C        2.87052042       2.04466465       0.69537204
C        0.83933707       0.90790803       1.43952986
C        0.07240990       0.97378120       0.25062408
C       -1.38206917       1.26978992       0.52591287
C       -1.93275656       2.45762678       0.05305409
C       -3.24697183       2.79360581       0.34008589
C       -4.02980390       1.94670247       1.10821306
C       -3.49211936       0.76044064       1.58634947
C       -2.17804356       0.42338153       1.29396832
H        3.59104727       0.53188243       2.87159957
H        2.95376968       2.10329127       3.38613945
H        1.99627401       0.63468192       3.64660352
H        2.26796897       2.34217746      -0.15546926
H        3.69685705       1.42244667       0.35409731
H        3.27288355       2.93520398       1.17874723
H        0.36471147       0.45782996       2.30796090
H        0.48842113       1.62346425      -0.51925089
H        0.09047536      -0.26558171      -0.41891273
H       -1.32078597       3.13841729      -0.52614255
H       -3.65129183       3.72688601      -0.02692269
H       -5.05048508       2.21367384       1.34270189
H       -4.09768508       0.09539546       2.18788312
H       -1.76993232      -0.50381421       1.68199557
C        2.40550171      -1.08929045      -1.47712917
C        1.14906466      -1.80945431      -1.94024016
N       -0.08982161      -1.41194400      -1.20410755
C       -0.52470094      -2.48991323      -0.27496844
C        0.50586047      -2.84713595       0.78021304
C       -1.21094406      -1.14310220      -2.15155963
C       -0.99469705       0.06081097      -3.05023512
H        3.25894449      -1.46624457      -2.04297496
H        2.60404999      -1.24912600      -0.41501816
H        2.32905961      -0.01675002      -1.66402915
H        1.27751059      -2.89133262      -1.85508996
H        0.99762201      -1.61373884      -3.00023048
H       -0.78110936      -3.37889064      -0.86438644
H       -1.44693187      -2.14811083       0.19606946
H        0.75848082      -1.98431753       1.39829344
H        1.42394605      -3.24243513       0.34433586
H        0.09639550      -3.61658779       1.43449356
H       -1.38024924      -2.04387576      -2.75491437
H       -2.10545037      -0.98928876      -1.54653535
H       -0.92231437       0.98029931      -2.47102413
H       -0.10945289      -0.03217650      -3.68000717
H       -1.85301655       0.15857764      -3.71482520
47
Properties=species:S:1:pos:R:3 charge=1 spin=1 pbc="F F F"
C        2.68647828       1.12550588       2.97419694
N        2.06071377       1.30841818       1.66589891
C        2.86929989       2.03868716       0.69717623
C        0.83805563       0.90205139       1.44139000
C        0.07109535       0.96790506       0.25250346
C       -1.38338073       1.26388807       0.52783619
C       -1.93411331       2.45170138       0.05497156
C       -3.24832654       2.78765474       0.34204314
C       -4.03111129       1.94074893       1.11021567
C       -3.49338180       0.75450949       1.58835714
C       -2.17930836       0.41747584       1.29593622
H        3.58972287       0.52601668       2.87352888
H        2.95254982       2.09752897       3.38787854
H        1.99494945       0.62901999       3.64851102
H        2.26693786       2.33562886      -0.15398971
H        3.69596759       1.41662288       0.35643504
H        3.27119348       2.92956200       1.18032516
H        0.36343264       0.45202143       2.30984746
H        0.48706343       1.61760698      -0.51737828
H        0.08916175      -0.27145833      -0.41703023
H       -1.32217913       3.13249518      -0.52425970
H       -3.65268150       3.72091809      -0.02496971
H       -5.05179036       2.20770116       1.34473559
H       -4.09891055       0.08946239       2.18992575
H       -1.77116106      -0.50970262       1.68396718
C        2.40418358      -1.09519469      -1.47523843
C        1.14774229      -1.81535706      -1.93833999
N       -0.09114266      -1.41782630      -1.20221598
C       -0.52603787      -2.49578300      -0.27306956
C        0.50451270      -2.85299819       0.78212497
C       -1.21225794      -1.14897722      -2.14967390
C       -0.99599154       0.05492567      -3.04835866
H        3.25762525      -1.47216504      -2.04107498
H        2.60272771      -1.25501143      -0.41312392
H        2.32775133      -0.02265721      -1.66215839
H        1.27618109      -2.89723469      -1.85317104
H        0.99630283      -1.61965879      -2.99833405
H       -0.78244578      -3.38476535      -0.86248041
H       -1.44827083      -2.15396965       0.19795636
H        0.75713012      -1.99017340       1.40019779
H        1.42260114      -3.24830459       0.34626030
H        0.09503962      -3.62244138       1.43641059
H       -1.38157308      -2.04975305      -2.75302246
H       -2.10676428      -0.99514688      -1.54465390
H       -0.92360544       0.97441910      -2.46915617
H       -0.11074217      -0.03807604      -3.67812142
H       -1.85430360       0.15269427      -3.71295805
47
Properties=species:S:1:pos:R:3 charge=1 spin=1 pbc="F F F"
C        2.68519376       1.11971268       2.97604920
N        2.05945241       1.30251835       1.66772557
C        2.86807937       2.03270966       0.69898041
C        0.83677418       0.89619474       1.44325015
C        0.06978080       0.96202893       0.25438285
C       -1.38469230       1.25798622       0.52975951
C       -1.93547006       2.44577598       0.05688903
C       -3.24968125       2.78170368       0.34400039
C       -4.03241868       1.93479539       1.11221827
C       -3.49464423       0.74857833       1.59036481
C       -2.18057315       0.41157015       1.29790413
H        3.58839848       0.52015093       2.87545819
H        2.95132996       2.09176667       3.38961762
H        1.99362488       0.62335806       3.65041852
H        2.26590676       2.32908026      -0.15251016
H        3.69507813       1.41079909       0.35877278
H        3.26950342       2.92392002       1.18190310
H        0.36215381       0.44621291       2.31173402
H        0.48570574       1.61174970      -0.51550567
H        0.08784813      -0.27733495      -0.41514774
H       -1.32357229       3.12657307      -0.52237686
H       -3.65407118       3.71495017      -0.02301674
H       -5.05309563       2.20172847       1.34676930
H       -4.10013602       0.08352931       2.19196838
H       -1.77238979      -0.51559102       1.68593879
C        2.40286545      -1.10109894      -1.47334770
C        1.14641991      -1.82125981      -1.93643983
N       -0.09246370      -1.42370859      -1.20032441
C       -0.52737481      -2.50165276      -0.27117069
C        0.50316493      -2.85886044       0.78403690
C       -1.21357183      -1.15485224      -2.14778818
C       -0.99728603       0.04904036      -3.04648220
H        3.25630600      -1.47808550      -2.03917499
H        2.60140544      -1.26089686      -0.41122968
H        2.32644305      -0.02856439      -1.66028762
H        1.27485159      -2.90313677      -1.85125213
H        0.99498364      -1.62557874      -2.99643762
H       -0.78378220      -3.39064006      -0.86057439
H       -1.44960979      -2.15982847       0.19984326
H        0.75577941      -1.99602927       1.40210215
H        1.42125623      -3.25417405       0.34818474
H        0.09368374      -3.62829497       1.43832762
H       -1.38289691      -2.05563035      -2.75113056
H       -2.10807819      -1.00100500      -1.54277245
H       -0.92489651       0.96853890      -2.46728821
H       -0.11203146      -0.04397558      -3.67623567
H       -1.85559065       0.14681090      -3.71109091
47
Properties=species:S:1:pos:R:3 charge=1 spin=1 pbc="F F F"
C        2.68390924       1.11391948       2.97790146
N        2.05819105       1.29661852       1.66955222
C        2.86685885       2.02673217       0.70078460
C        0.83549273       0.89033809       1.44511029
C        0.06846625       0.95615279       0.25626223
C       -1.38600386       1.25208437       0.53168282
C       -1.93682682       2.43985059       0.05880650
C       -3.25103596       2.77575261       0.34595764
C       -4.03372608       1.92884185       1.11422088
C       -3.49590667       0.74264718       1.59237248
C       -2.18183795       0.40566446       1.29987203
H        3.58707408       0.51428518       2.87738750
H        2.95011010       2.08600437       3.39135670
H        1.99230032       0.61769612       3.65232602
H        2.26487565       2.32253166      -0.15103062
H        3.69418866       1.40497530       0.36111052
H        3.26781335       2.91827804       1.18348104
H        0.36087497       0.44040438       2.31362058
H        0.48434805       1.60589243      -0.51363306
H        0.08653451      -0.28321157      -0.41326524
H       -1.32496544       3.12065096      -0.52049401
H       -3.65546086       3.70898225      -0.02106377
H       -5.05440091       2.19575578       1.34880301
H       -4.10136148       0.07759624       2.19401100
H       -1.77361853      -0.52147942       1.68791040
C        2.40154733      -1.10700318      -1.47145696
C        1.14509754      -1.82716255      -1.93453966
N       -0.09378475      -1.42959089      -1.19843284
C       -0.52871174      -2.50752253      -0.26927181
C        0.50181716      -2.86472268       0.78594883
C       -1.21488571      -1.16072727      -2.14590245
C       -0.99858052       0.04315506      -3.04460574
H        3.25498676      -1.48400597      -2.03727501
H        2.60008317      -1.26678229      -0.40933544
H        2.32513478      -0.03447158      -1.65841686
H        1.27352209      -2.90903885      -1.84933322
H        0.99366446      -1.63149869      -2.99454119
H       -0.78511862      -3.39651477      -0.85866836
H       -1.45094875      -2.16568728       0.20173015
H        0.75442871      -2.00188514       1.40400650
H        1.41991132      -3.26004351       0.35010919
H        0.09232786      -3.63414857       1.44024464
H       -1.38422075      -2.06150764      -2.74923866
H       -2.10939210      -1.00686312      -1.54089100
H       -0.92618758       0.96265869      -2.46542026
H       -0.11332074      -0.04987513      -3.67434992
H       -1.85687770       0.14092754      -3.70922376
47
Properties=species:S:1:pos:R:3 charge=1 spin=1 pbc="F F F"
C        2.68262471       1.10812628       2.97975372
N        2.05692969       1.29071869       1.67137887
C        2.86563833       2.02075468       0.70258879
C        0.83421129       0.88448145       1.44697043
C        0.06715170       0.95027665       0.25814161
C       -1.38731542       1.24618252       0.53360614
C       -1.93818357       2.43392519       0.06072396
C       -3.25239066       2.76980155       0.34791489
C       -4.03503347       1.92288831       1.11622348
C       -3.49716911       0.73671603       1.59438015
C       -2.18310275       0.39975877       1.30183993
H        3.58574968       0.50841943       2.87931681
H        2.94889025       2.08024207       3.39309578
H        1.99097576       0.61203419       3.65423352
H        2.26384455       2.31598305      -0.14955107
H        3.69329920       1.39915152       0.36344825
H        3.26612329       2.91263606       1.18505897
H        0.35959614       0.43459585       2.31550714
H        0.48299035       1.60003516      -0.51176046
H        0.08522089      -0.28908820      -0.41138274
H       -1.32635860       3.11472885      -0.51861117
H       -3.65685053       3.70301433      -0.01911079
H       -5.05570618       2.18978310       1.35083672
H       -4.10258695       0.07166316       2.19605363
H       -1.77484726      -0.52736782       1.68988201
C        2.40022920      -1.11290742      -1.46956622
C        1.14377517      -1.83306530      -1.93263949
N       -0.09510579      -1.43547319      -1.19654127
C       -0.53004868      -2.51339229      -0.26737294
C        0.50046939      -2.87058493       0.78786076
C       -1.21619959      -1.16660229      -2.14401672
C       -0.99987501       0.03726975      -3.04272928
H        3.25366751      -1.48992644      -2.03537503
H        2.59876089      -1.27266772      -0.40744119
H        2.32382650      -0.04037877      -1.65654609
H        1.27219258      -2.91494092      -1.84741431
H        0.99234528      -1.63741864      -2.99264476
H       -0.78645504      -3.40238948      -0.85676234
H       -1.45228772      -2.17154610       0.20361705
H        0.75307800      -2.00774100       1.40591086
H        1.41856641      -3.26591297       0.35203363
H        0.09097198      -3.64000216       1.44216167
H       -1.38554459      -2.06738494      -2.74734676
H       -2.11070601      -1.01272124      -1.53900955
H       -0.92747866       0.95677849      -2.46355230
H       -0.11461002      -0.05577467      -3.67246417
H       -1.85816475       0.13504417      -3.70735662
47
Properties=species:S:1:pos:R:3 charge=1 spin=1 pbc="F F F"
C        2.68134019       1.10233308       2.98160599
N        2.05566833       1.28481886       1.67320553
C        2.86441781       2.01477719       0.70439297
C        0.83292984       0.87862480       1.44883057
C        0.06583715       0.94440051       0.26002100
C       -1.38862699       1.24028067       0.53552946
C       -1.93954032       2.42799979       0.06264143
C       -3.25374537       2.76385048       0.34987214
C       -4.03634086       1.91693477       1.11822609
C       -3.49843155       0.73078487       1.59638782
C       -2.18436755       0.39385307       1.30380783
H        3.58442529       0.50255369       2.88124612
H        2.94767039       2.07447977       3.39483486
H        1.98965119       0.60637226       3.65614102
H        2.26281344       2.30943445      -0.14807153
H        3.69240974       1.39332773       0.36578599
H        3.26443322       2.90699409       1.18663691
H        0.35831731       0.42878733       2.31739369
H        0.48163266       1.59417789      -0.50988785
H        0.08390727      -0.29496482      -0.40950024
H       -1.32775176       3.10880673      -0.51672832
H       -3.65824021       3.69704642      -0.01715782
H       -5.05701146       2.18381041       1.35287043
H       -4.10381242       0.06573009       2.19809626
H       -1.77607600      -0.53325622       1.69185362
C        2.39891107      -1.11881167      -1.46767548
C        1.14245280      -1.83896805      -1.93073933
N       -0.09642684      -1.44135549      -1.19464970
C       -0.53138561      -2.51926206      -0.26547406
C        0.49912162      -2.87644717       0.78977269
C       -1.21751347      -1.17247731      -2.14213099
C       -1.00116949       0.03138445      -3.04085283
H        3.25234827      -1.49584691      -2.03347504
H        2.59743862      -1.27855315      -0.40554695
H        2.32251822      -0.04628596      -1.65467533
H        1.27086308      -2.92084300      -1.84549540
H        0.99102609      -1.64333859      -2.99074834
H       -0.78779146      -3.40826419      -0.85485631
H       -1.45362668      -2.17740492       0.20550395
H        0.75172730      -2.01359687       1.40781521
H        1.41722151      -3.27178243       0.35395808
H        0.08961610      -3.64585575       1.44407869
H       -1.38686843      -2.07326223      -2.74545486
H       -2.11201992      -1.01857936      -1.53712810
H       -0.92876973       0.95089828      -2.46168434
H       -0.11589931      -0.06167422      -3.67057842
H       -1.85945180       0.12916080      -3.70548947
47
Properties=species:S:1:pos:R:3 charge=1 spin=1 pbc="F F F"
C        2.68005567       1.09653989       2.98345825
N        2.05440697       1.27891903       1.67503218
C        2.86319728       2.00879969       0.70619716
C        0.83164839       0.87276815       1.45069072
C        0.06452260       0.93852438       0.26190038
C       -1.38993855       1.23437883       0.53745278
C       -1.94089707       2.42207439       0.06455890
C       -3.25510008       2.75789942       0.35182939
C       -4.03764825       1.91098123       1.12022869
C       -3.49969398       0.72485372       1.59839550
C       -2.18563234       0.38794738       1.30577574
H        3.58310089       0.49668794       2.88317543
H        2.94645053       2.06871747       3.39657395
H        1.98832663       0.60071033       3.65804853
H        2.26178234       2.30288585      -0.14659198
H        3.69152028       1.38750394       0.36812373
H        3.26274316       2.90135211       1.18821485
H        0.35703848       0.42297880       2.31928025
H        0.48027497       1.58832061      -0.50801524
H        0.08259366      -0.30084144      -0.40761775
H       -1.32914492       3.10288462      -0.51484548
H       -3.65962989       3.69107850      -0.01520485
H       -5.05831673       2.17783772       1.35490414
H       -4.10503789       0.05979701       2.20013889
H       -1.77730473      -0.53914463       1.69382522
C        2.39759294      -1.12471591      -1.46578475
C        1.14113042      -1.84487080      -1.92883916
N       -0.09774788      -1.44723778      -1.19275814
C       -0.53272255      -2.52513182      -0.26357519
C        0.49777386      -2.88230942       0.79168462
C       -1.21882736      -1.17835233      -2.14024527
C       -1.00246398       0.02549914      -3.03897637
H        3.25102902      -1.50176737      -2.03157506
H        2.59611635      -1.28443858      -0.40365271
H        2.32120994      -0.05219314      -1.65280456
H        1.26953358      -2.92674508      -1.84357648
H        0.98970691      -1.64925854      -2.98885191
H       -0.78912788      -3.41413890      -0.85295029
H       -1.45496564      -2.18326374       0.20739085
H        0.75037659      -2.01945274       1.40971957
H        1.41587660      -3.27765189       0.35588252
H        0.08826021      -3.65170934       1.44599572
H       -1.38819226      -2.07913953      -2.74356295
H       -2.11333382      -1.02443748      -1.53524666
H       -0.93006080       0.94501808      -2.45981638
H       -0.11718859      -0.06757376      -3.66869267
H       -1.86073885       0.12327743      -3.70362233
47
Properties=species:S:1:pos:R:3 charge=1 spin=1 pbc="F F F"
C        2.67877114       1.09074669       2.98531051
N        2.05314561       1.27301920       1.67685884
C        2.86197676       2.00282220       0.70800134
C        0.83036695       0.86691151       1.45255086
C        0.06320805       0.93264824       0.26377977
C       -1.39125012       1.22847698       0.53937609
C       -1.94225383       2.41614900       0.06647636
C       -3.25645479       2.75194835       0.35378664
C       -4.03895565       1.90502769       1.12223130
C       -3.50095642       0.71892256       1.60040317
C       -2.18689714       0.38204169       1.30774364
H        3.58177650       0.49082219       2.88510474
H        2.94523067       2.06295517       3.39831303
H        1.98700206       0.59504839       3.65995603
H        2.26075123       2.29633724      -0.14511244
H        3.69063081       1.38168015       0.37046146
H        3.26105309       2.89571013       1.18979278
H        0.35575964       0.41717028       2.32116681
H        0.47891727       1.58246334      -0.50614263
H        0.08128004      -0.30671807      -0.40573525
H       -1.33053808       3.09696251      -0.51296263
H       -3.66101956       3.68511058      -0.01325187
H       -5.05962201       2.17186504       1.35693785
H       -4.10626335       0.05386394       2.20218151
H       -1.77853347      -0.54503303       1.69579683
C        2.39627482      -1.13062016      -1.46389401
C        1.13980805      -1.85077354      -1.92693900
N       -0.09906893      -1.45312008      -1.19086657
C       -0.53405948      -2.53100159      -0.26167631
C        0.49642609      -2.88817166       0.79359655
C       -1.22014124      -1.18422736      -2.13835954
C       -1.00375847       0.01961384      -3.03709991
H        3.24970978      -1.50768784      -2.02967507
H        2.59479407      -1.29032401      -0.40175847
H        2.31990166      -0.05810033      -1.65093380
H        1.26820407      -2.93264715      -1.84165757
H        0.98838772      -1.65517849      -2.98695548
H       -0.79046430      -3.42001361      -0.85104426
H       -1.45630461      -2.18912256       0.20927774
H        0.74902589      -2.02530861       1.41162392
H        1.41453169      -3.28352135       0.35780697
H        0.08690433      -3.65756294       1.44791274
H       -1.38951610      -2.08501682      -2.74167105
H       -2.11464773      -1.03029560      -1.53336521
H       -0.93135188       0.93913787      -2.45794843
H       -0.11847788      -0.07347331      -3.66680692
H       -1.86202590       0.11739407      -3.70175518
47
Properties=species:S:1:pos:R:3 charge=1 spin=1 pbc="F F F"
C        2.67748662       1.08495349       2.98716277
N        2.05188425       1.26711937       1.67868549
C        2.86075624       1.99684471       0.70980553
C        0.82908550       0.86105486       1.45441100
C        0.06189350       0.92677210       0.26565915
C       -1.39256168       1.22257513       0.54129941
C       -1.94361058       2.41022360       0.06839383
C       -3.25780950       2.74599729       0.35574389
C       -4.04026304       1.89907415       1.12423390
C       -3.50221886       0.71299141       1.60241084
C       -2.18816194       0.37613600       1.30971154
H        3.58045210       0.48495644       2.88703405
H        2.94401081       2.05719287       3.40005211
H        1.98567750       0.58938646       3.66186353
H        2.25972013       2.28978864      -0.14363289
H        3.68974135       1.37585636       0.37279920
H        3.25936303       2.89006815       1.19137072
H        0.35448081       0.41136175       2.32305337
H        0.47755958       1.57660607      -0.50427002
H        0.07996642      -0.31259469      -0.40385275
H       -1.33193124       3.09104040      -0.51107979
H       -3.66240924       3.67914266      -0.01129890
H       -5.06092728       2.16589235       1.35897156
H       -4.10748882       0.04793086       2.20422414
H       -1.77976220      -0.55092143       1.69776844
C        2.39495669      -1.13652440      -1.46200327
C        1.13848568      -1.85667629      -1.92503883
N       -0.10038997      -1.45900238      -1.18897500
C       -0.53539642      -2.53687135      -0.25977744
C        0.49507832      -2.89403391       0.79550848
C       -1.22145512      -1.19010238      -2.13647381
C       -1.00505296       0.01372853      -3.03522345
H        3.24839053      -1.51360831      -2.02777509
H        2.59347180      -1.29620944      -0.39986423
H        2.31859338      -0.06400752      -1.64906303
H        1.26687457      -2.93854923      -1.83973866
H        0.98706854      -1.66109844      -2.98505905
H       -0.79180072      -3.42588832      -0.84913824
H       -1.45764357      -2.19498138       0.21116464
H        0.74767518      -2.03116448       1.41352828
H        1.41318678      -3.28939081       0.35973141
H        0.08554845      -3.66341653       1.44982977
H       -1.39083994      -2.09089412      -2.73977915
H       -2.11596164      -1.03615372      -1.53148376
H       -0.93264295       0.93325767      -2.45608047
H       -0.11976716      -0.07937285      -3.66492117
H       -1.86331295       0.11151070      -3.69988804
47
Properties=species:S:1:pos:R:3 charge=1 spin=1 pbc="F F F"
C        2.67620210       1.07916029       2.98901503
N        2.05062289       1.26121954       1.68051214
C        2.85953572       1.99086722       0.71160972
C        0.82780405       0.85519821       1.45627114
C        0.06057895       0.92089596       0.26753853
C       -1.39387324       1.21667328       0.54322273
C       -1.94496733       2.40429820       0.07031130
C       -3.25916421       2.74004623       0.35770114
C       -4.04157043       1.89312061       1.12623650
C       -3.50348130       0.70706026       1.60441851
C       -2.18942674       0.37023031       1.31167944
H        3.57912770       0.47909069       2.88896336
H        2.94279095       2.05143057       3.40179119
H        1.98435294       0.58372453       3.66377103
H        2.25868903       2.28324004      -0.14215334
H        3.68885189       1.37003257       0.37513694
H        3.25767297       2.88442617       1.19294866
H        0.35320198       0.40555322       2.32493993
H        0.47620189       1.57074880      -0.50239741
H        0.07865280      -0.31847131      -0.40197025
H       -1.33332440       3.08511829      -0.50919695
H       -3.66379892       3.67317474      -0.00934593
H       -5.06223255       2.15991966       1.36100527
H       -4.10871429       0.04199778       2.20626677
H       -1.78099093      -0.55680983       1.69974005
C        2.39363856      -1.14242864      -1.46011253
C        1.13716331      -1.86257904      -1.92313866
N       -0.10171101      -1.46488468      -1.18708343
C       -0.53673336      -2.54274111      -0.25787857
C        0.49373055      -2.89989616       0.79742041
C       -1.22276900      -1.19597740      -2.13458808
C       -1.00634745       0.00784322      -3.03334699
H        3.24707128      -1.51952878      -2.02587511
H        2.59214953      -1.30209487      -0.39796999
H        2.31728510      -0.06991471      -1.64719226
H        1.26554507      -2.94445131      -1.83781975
H        0.98574936      -1.66701839      -2.98316262
H       -0.79313714      -3.43176303      -0.84723222
H       -1.45898253      -2.20084020       0.21305154
H        0.74632447      -2.03702035       1.41543264
H        1.41184187      -3.29526027       0.36165585
H        0.08419257      -3.66927012       1.45174680
H       -1.39216378      -2.09677142      -2.73788725
H       -2.11727555      -1.04201184      -1.52960231
H       -0.93393402       0.92737747      -2.45421251
H       -0.12105644      -0.08527239      -3.66303542
H       -1.86460000       0.10562733      -3.69802090
47
Properties=species:S:1:pos:R:3 charge=1 spin=1 pbc="F F F"
C        2.67491757       1.07336709       2.99086729
N        2.04936153       1.25531971       1.68233880
C        2.85831520       1.98488973       0.71341390
C        0.82652261       0.84934157       1.45813128
C        0.05926440       0.91501982       0.26941792
C       -1.39518481       1.21077143       0.54514604
C       -1.94632409       2.39837281       0.07222876
C       -3.26051892       2.73409516       0.35965839
C       -4.04287783       1.88716707       1.12823911
C       -3.50474374       0.70112910       1.60642618
C       -2.19069154       0.36432462       1.31364734
H        3.57780331       0.47322494       2.89089267
H        2.94157109       2.04566827       3.40353027
H        1.98302837       0.57806259       3.66567853
H        2.25765792       2.27669143      -0.14067380
H        3.68796242       1.36420878       0.37747467
H        3.25598290       2.87878419       1.19452659
H        0.35192314       0.39974470       2.32682649
H        0.47484419       1.56489153      -0.50052480
H        0.07733918      -0.32434794      -0.40008775
H       -1.33471756       3.07919618      -0.50731410
H       -3.66518859       3.66720682      -0.00739295
H       -5.06353783       2.15394698       1.36303898
H       -4.10993975       0.03606471       2.20830939
H       -1.78221967      -0.56269823       1.70171166
C        2.39232044      -1.14833289      -1.45822179
C        1.13584094      -1.86848178      -1.92123850
N       -0.10303206      -1.47076698      -1.18519186
C       -0.53807029      -2.54861088      -0.25597969
C        0.49238278      -2.90575840       0.79933234
C       -1.22408288      -1.20185243      -2.13270235
C       -1.00764194       0.00195792      -3.03147053
H        3.24575204      -1.52544925      -2.02397512
H        2.59082725      -1.30798030      -0.39607575
H        2.31597682      -0.07582190      -1.64532150
H        1.26421556      -2.95035338      -1.83590084
H        0.98443017      -1.67293834      -2.98126619
H       -0.79447356      -3.43763774      -0.84532619
H       -1.46032150      -2.20669902       0.21493843
H        0.74497377      -2.04287622       1.41733699
H        1.41049696      -3.30112973       0.36358030
H        0.08283669      -3.67512372       1.45366382
H       -1.39348762      -2.10264871      -2.73599535
H       -2.11858946      -1.04786996      -1.52772086
H       -0.93522510       0.92149726      -2.45234456
H       -0.12234573      -0.09117194      -3.66114967
H       -1.86588705       0.09974397      -3.69615375
47
Properties=species:S:1:pos:R:3 charge=1 spin=1 pbc="F F F"
C        2.67363305       1.06757390       2.99271955
N        2.04810017       1.24941988       1.68416545
C        2.85709467       1.97891223       0.71521809
C        0.82524116       0.84348492       1.45999143
C        0.05794985       0.90914369       0.27129730
C       -1.39649637       1.20486959       0.54706936
C       -1.94768084       2.39244741       0.07414623
C       -3.26187363       2.72814410       0.36161564
C       -4.04418522       1.88121353       1.13024171
C       -3.50600617       0.69519795       1.60843386
C       -2.19195633       0.35841893       1.31561525
H        3.57647891       0.46735919       2.89282198
H        2.94035123       2.03990597       3.40526936
H        1.98170381       0.57240066       3.66758604
H        2.25662682       2.27014283      -0.13919425
H        3.68707296       1.35838499       0.37981241
H        3.25429284       2.87314221       1.19610453
H        0.35064431       0.39393617       2.32871305
H        0.47348650       1.55903425      -0.49865219
H        0.07602557      -0.33022456      -0.39820526
H       -1.33611072       3.07327407      -0.50543126
H       -3.66657827       3.66123890      -0.00543998
H       -5.06484310       2.14797429       1.36507269
H       -4.11116522       0.03013163       2.21035202
H       -1.78344840      -0.56858664       1.70368326
C        2.39100231      -1.15423713      -1.45633106
C        1.13451856      -1.87438453      -1.91933833
N       -0.10435310      -1.47664927      -1.18330030
C       -0.53940723      -2.55448064      -0.25408082
C        0.49103502      -2.91162065       0.80124427
C       -1.22539677      -1.20772745      -2.13081663
C       -1.00893643      -0.00392739      -3.02959407
H        3.24443279      -1.53136971      -2.02207514
H        2.58950498      -1.31386573      -0.39418151
H        2.31466854      -0.08172908      -1.64345073
H        1.26288606      -2.95625546      -1.83398192
H        0.98311099      -1.67885829      -2.97936976
H       -0.79580998      -3.44351245      -0.84342017
H       -1.46166046      -2.21255784       0.21682533
H        0.74362306      -2.04873209       1.41924135
H        1.40915205      -3.30699919       0.36550474
H        0.08148080      -3.68097731       1.45558085
H       -1.39481145      -2.10852601      -2.73410344
H       -2.11990336      -1.05372808      -1.52583942
H       -0.93651617       0.91561706      -2.45047660
H       -0.12363501      -0.09707148      -3.65926392
H       -1.86717410       0.09386060      -3.69428661
47
Properties=species:S:1:pos:R:3 charge=1 spin=1 pbc="F F F"
C        2.67234853       1.06178070       2.99457182
N        2.04683881       1.24352005       1.68599211
C        2.85587415       1.97293474       0.71702227
C        0.82395971       0.83762827       1.46185157
C        0.05663530       0.90326755       0.27317669
C       -1.39780794       1.19896774       0.54899268
C       -1.94903759       2.38652201       0.07606370
C       -3.26322834       2.72219303       0.36357289
C       -4.04549261       1.87525999       1.13224432
C       -3.50726861       0.68926679       1.61044153
C       -2.19322113       0.35251323       1.31758315
H        3.57515452       0.46149345       2.89475129
H        2.93913137       2.03414367       3.40700844
H        1.98037924       0.56673873       3.66949354
H        2.25559571       2.26359423      -0.13771471
H        3.68618350       1.35256120       0.38215015
H        3.25260277       2.86750024       1.19768247
H        0.34936548       0.38812765       2.33059960
H        0.47212881       1.55317698      -0.49677958
H        0.07471195      -0.33610118      -0.39632276
H       -1.33750388       3.06735195      -0.50354841
H       -3.66796795       3.65527099      -0.00348701
H       -5.06614838       2.14200160       1.36710640
H       -4.11239069       0.02419856       2.21239465
H       -1.78467714      -0.57447504       1.70565487
C        2.38968418      -1.16014138      -1.45444032
C        1.13319619      -1.88028728      -1.91743817
N       -0.10567415      -1.48253157      -1.18140873
C       -0.54074416      -2.56035041      -0.25218194
C        0.48968725      -2.91748289       0.80315620
C       -1.22671065      -1.21360247      -2.12893090
C       -1.01023091      -0.00981269      -3.02771762
H        3.24311355      -1.53729018      -2.02017515
H        2.58818271      -1.31975116      -0.39228727
H        2.31336026      -0.08763627      -1.64157997
H        1.26155656      -2.96215754      -1.83206301
H        0.98179180      -1.68477824      -2.97747334
H       -0.79714640      -3.44938716      -0.84151414
H       -1.46299942      -2.21841666       0.21871223
H        0.74227236      -2.05458796       1.42114570
H        1.40780715      -3.31286865       0.36742919
H        0.08012492      -3.68683090       1.45749787
H       -1.39613529      -2.11440330      -2.73221154
H       -2.12121727      -1.05958620      -1.52395797
H       -0.93780724       0.90973685      -2.44860864
H       -0.12492430      -0.10297103      -3.65737817
H       -1.86846115       0.08797723      -3.69241946
47
Properties=species:S:1:pos:R:3 charge=1 spin=1 pbc="F F F"
C        2.67106400       1.05598750       2.99642408
N        2.04557745       1.23762022       1.68781876
C        2.85465363       1.96695725       0.71882646
C        0.82267827       0.83177163       1.46371171
C        0.05532075       0.89739141       0.27505607
C       -1.39911950       1.19306589       0.55091600
C       -1.95039434       2.38059661       0.07798116
C       -3.26458304       2.71624197       0.36553014
C       -4.04680000       1.86930645       1.13424692
C       -3.50853105       0.68333564       1.61244920
C       -2.19448593       0.34660754       1.31955105
H        3.57383012       0.45562770       2.89668060
H        2.93791152       2.02838137       3.40874752
H        1.97905468       0.56107680       3.67140104
H        2.25456461       2.25704562      -0.13623516
H        3.68529404       1.34673742       0.38448788
H        3.25091271       2.86185826       1.19926040
H        0.34808665       0.38231912       2.33248616
H        0.47077111       1.54731971      -0.49490698
H        0.07339833      -0.34197781      -0.39444026
H       -1.33889704       3.06142984      -0.50166557
H       -3.66935762       3.64930307      -0.00153403
H       -5.06745365       2.13602892       1.36914011
H       -4.11361616       0.01826548       2.21443728
H       -1.78590587      -0.58036344       1.70762648
C        2.38836605      -1.16604562      -1.45254958
C        1.13187382      -1.88619003      -1.91553800
N       -0.10699519      -1.48841387      -1.17951716
C       -0.54208110      -2.56622017      -0.25028307
C        0.48833948      -2.92334514       0.80506813
C       -1.22802453      -1.21947749      -2.12704517
C       -1.01152540      -0.01569800      -3.02584116
H        3.24179430      -1.54321065      -2.01827517
H        2.58686043      -1.32563659      -0.39039302
H        2.31205198      -0.09354346      -1.63970920
H        1.26022705      -2.96805961      -1.83014410
H        0.98047262      -1.69069819      -2.97557691
H       -0.79848282      -3.45526187      -0.83960812
H       -1.46433839      -2.22427548       0.22059913
H        0.74092165      -2.06044382       1.42305006
H        1.40646224      -3.31873811       0.36935363
H        0.07876904      -3.69268449       1.45941490
H       -1.39745913      -2.12028060      -2.73031964
H       -2.12253118      -1.06544432      -1.52207652
H       -0.93909832       0.90385665      -2.44674068
H       -0.12621358      -0.10887057      -3.65549242
H       -1.86974820       0.08209386      -3.69055232
47
Properties=species:S:1:pos:R:3 charge=1 spin=1 pbc="F F F"
C        2.66977948       1.05019430       2.99827634
N        2.04431609       1.23172039       1.68964541
C        2.85343311       1.96097976       0.72063065
C        0.82139682       0.82591498       1.46557185
C        0.05400620       0.89151527       0.27693545
C       -1.40043106       1.18716404       0.55283931
C       -1.95175110       2.37467122       0.07989863
C       -3.26593775       2.71029090       0.36748739
C       -4.04810740       1.86335291       1.13624953
C       -3.50979349       0.67740449       1.61445687
C       -2.19575073       0.34070185       1.32151895
H        3.57250572       0.44976195       2.89860991
H        2.93669166       2.02261907       3.41048660
H        1.97773012       0.55541486       3.67330854
H        2.25353350       2.25049702      -0.13475562
H        3.68440457       1.34091363       0.38682562
H        3.24922264       2.85621628       1.20083834
H        0.34680781       0.37651059       2.33437272
H        0.46941342       1.54146244      -0.49303437
H        0.07208471      -0.34785443      -0.39255776
H       -1.34029019       3.05550773      -0.49978272
H       -3.67074730       3.64333515       0.00041894
H       -5.06875893       2.13005623       1.37117382
H       -4.11484162       0.01233241       2.21647990
H       -1.78713461      -0.58625184       1.70959809
C        2.38704793      -1.17194986      -1.45065884
C        1.13055145      -1.89209277      -1.91363783
N       -0.10831624      -1.49429617      -1.17762559
C       -0.54341803      -2.57208994      -0.24838419
C        0.48699171      -2.92920738       0.80698006
C       -1.22933841      -1.22535252      -2.12515944
C       -1.01281989      -0.02158330      -3.02396470
H        3.24047506      -1.54913112      -2.01637519
H        2.58553816      -1.33152202      -0.38849878
H        2.31074371      -0.09945065      -1.63783844
H        1.25889755      -2.97396169      -1.82822519
H        0.97915344      -1.69661814      -2.97368048
H       -0.79981924      -3.46113658      -0.83770209
H       -1.46567735      -2.23013429       0.22248602
H        0.73957095      -2.06629969       1.42495441
H        1.40511733      -3.32460757       0.37127808
H        0.07741316      -3.69853809       1.46133192
H       -1.39878297      -2.12615789      -2.72842774
H       -2.12384509      -1.07130244      -1.52019507
H       -0.94038939       0.89797644      -2.44487273
H       -0.12750286      -0.11477012      -3.65360667
H       -1.87103525       0.07621050      -3.68868517
47
Properties=species:S:1:pos:R:3 charge=1 spin=1 pbc="F F F"
C        2.66849496       1.04440110       3.00012860
N        2.04305473       1.22582056       1.69147207
C        2.85221259       1.95500226       0.72243483
C        0.82011537       0.82005833       1.46743200
C        0.05269165       0.88563914       0.27881484
C       -1.40174263       1.18126219       0.55476263
C       -1.95310785       2.36874582       0.08181610
C       -3.26729246       2.70433984       0.36944464
C       -4.04941479       1.85739937       1.13825213
C       -3.51105592       0.67147333       1.61646454
C       -2.19701552       0.33479616       1.32348686
H        3.57118133       0.44389620       2.90053922
H        2.93547180       2.01685677       3.41222568
H        1.97640555       0.54975293       3.67521604
H        2.25250240       2.24394842      -0.13327607
H        3.68351511       1.33508984       0.38916336
H        3.24753258       2.85057430       1.20241628
H        0.34552898       0.37070207       2.33625928
H        0.46805573       1.53560516      -0.49116176
H        0.07077109      -0.35373105      -0.39067527
H       -1.34168335       3.04958562      -0.49789988
H       -3.67213698       3.63736723       0.00237191
H       -5.07006420       2.12408354       1.37320753
H       -4.11606709       0.00639933       2.21852253
H       -1.78836334      -0.59214024       1.71156970
C        2.38572980      -1.17785411      -1.44876811
C        1.12922907      -1.89799552      -1.91173767
N       -0.10963728      -1.50017846      -1.17573402
C       -0.54475497      -2.57795970      -0.24648532
C        0.48564394      -2.93506963       0.80889199
C       -1.23065230      -1.23122754      -2.12327372
C       -1.01411438      -0.02746861      -3.02208824
H        3.23915581      -1.55505158      -2.01447520
H        2.58421589      -1.33740745      -0.38660454
H        2.30943543      -0.10535783      -1.63596767
H        1.25756805      -2.97986377      -1.82630628
H        0.97783425      -1.70253809      -2.97178405
H       -0.80115566      -3.46701129      -0.83579607
H       -1.46701631      -2.23599311       0.22437292
H        0.73822024      -2.07215556       1.42685877
H        1.40377242      -3.33047703       0.37320252
H        0.07605728      -3.70439168       1.46324895
H       -1.40010680      -2.13203519      -2.72653584
H       -2.12515900      -1.07716056      -1.51831362
H       -0.94168046       0.89209624      -2.44300477
H       -0.12879215      -0.12066966      -3.65172092
H       -1.87232230       0.07032713      -3.68681803
47
Properties=species:S:1:pos:R:3 charge=1 spin=1 pbc="F F F"
C        2.66721044       1.03860791       3.00198086
N        2.04179337       1.21992073       1.69329872
C        2.85099206       1.94902477       0.72423902
C        0.81883393       0.81420169       1.46929214
C        0.05137710       0.87976300       0.28069422
C       -1.40305419       1.17536034       0.55668595
C       -1.95446460       2.36282042       0.08373357
C       -3.26864717       2.69838877       0.37140189
C       -4.05072218       1.85144583       1.14025474
C       -3.51231836       0.66554218       1.61847221
C       -2.19828032       0.32889047       1.32545476
H        3.56985693       0.43803045       2.90246853
H        2.93425194       2.01109447       3.41396477
H        1.97508099       0.54409100       3.67712354
H        2.25147129       2.23739982      -0.13179652
H        3.68262565       1.32926605       0.39150109
H        3.24584251       2.84493232       1.20399421
H        0.34425015       0.36489354       2.33814584
H        0.46669803       1.52974789      -0.48928915
H        0.06945748      -0.35960767      -0.38879277
H       -1.34307651       3.04366351      -0.49601703
H       -3.67352665       3.63139931       0.00432489
H       -5.07136948       2.11811086       1.37524123
H       -4.11729256       0.00046626       2.22056516
H       -1.78959208      -0.59802865       1.71354131
C        2.38441167      -1.18375835      -1.44687737
C        1.12790670      -1.90389827      -1.90983750
N       -0.11095833      -1.50606076      -1.17384245
C       -0.54609190      -2.58382947      -0.24458644
C        0.48429617      -2.94093187       0.81080392
C       -1.23196618      -1.23710256      -2.12138799
C       -1.01540887      -0.03335391      -3.02021178
H        3.23783657      -1.56097205      -2.01257522
H        2.58289361      -1.34329288      -0.38471030
H        2.30812715      -0.11126502      -1.63409691
H        1.25623855      -2.98576584      -1.82438736
H        0.97651507      -1.70845804      -2.96988762
H       -0.80249208      -3.47288600      -0.83389004
H       -1.46835527      -2.24185193       0.22625982
H        0.73686954      -2.07801143       1.42876312
H        1.40242751      -3.33634649       0.37512696
H        0.07470140      -3.71024527       1.46516598
H       -1.40143064      -2.13791248      -2.72464393
H       -2.12647291      -1.08301868      -1.51643217
H       -0.94297153       0.88621603      -2.44113681
H       -0.13008143      -0.12656920      -3.64983517
H       -1.87360935       0.06444376      -3.68495088
47
Properties=species:S:1:pos:R:3 charge=1 spin=1 pbc="F F F"
C        2.66592591       1.03281471       3.00383312
N        2.04053202       1.21402090       1.69512538
C        2.84977154       1.94304728       0.72604320
C        0.81755248       0.80834504       1.47115228
C        0.05006255       0.87388686       0.28257361
C       -1.40436576       1.16945850       0.55860926
C       -1.95582135       2.35689502       0.08565103
C       -3.27000188       2.69243771       0.37335914
C       -4.05202957       1.84549229       1.14225734
C       -3.51358080       0.65961102       1.62047989
C       -2.19954512       0.32298478       1.32742266
H        3.56853253       0.43216470       2.90439784
H        2.93303208       2.00533217       3.41570385
H        1.97375642       0.53842907       3.67903105
H        2.25044019       2.23085121      -0.13031698
H        3.68173619       1.32344226       0.39383883
H        3.24415245       2.83929034       1.20557215
H        0.34297131       0.35908502       2.34003240
H        0.46534034       1.52389062      -0.48741654
H        0.06814386      -0.36548430      -0.38691027
H       -1.34446967       3.03774140      -0.49413419
H       -3.67491633       3.62543139       0.00627786
H       -5.07267475       2.11213817       1.37727494
H       -4.11851802      -0.00546682       2.22260779
H       -1.79082081      -0.60391705       1.71551291
C        2.38309354      -1.18966260      -1.44498663
C        1.12658433      -1.90980101      -1.90793733
N       -0.11227937      -1.51194306      -1.17195089
C       -0.54742884      -2.58969923      -0.24268757
C        0.48294841      -2.94679412       0.81271585
C       -1.23328006      -1.24297758      -2.11950226
C       -1.01670336      -0.03923922      -3.01833532
H        3.23651732      -1.56689252      -2.01067523
H        2.58157134      -1.34917831      -0.38281606
H        2.30681887      -0.11717221      -1.63222614
H        1.25490904      -2.99166792      -1.82246845
H        0.97519589      -1.71437799      -2.96799119
H       -0.80382850      -3.47876071      -0.83198402
H       -1.46969424      -2.24771075       0.22814672
H        0.73551883      -2.08386730       1.43066748
H        1.40108260      -3.34221595       0.37705141
H        0.07334551      -3.71609887       1.46708300
H       -1.40275448      -2.14378978      -2.72275203
H       -2.12778681      -1.08887680      -1.51455073
H       -0.94426261       0.88033583      -2.43926886
H       -0.13137072      -0.13246875      -3.64794942
H       -1.87489640       0.05856039      -3.68308374
47
Properties=species:S:1:pos:R:3 charge=1 spin=1 pbc="F F F"
C        2.66464139       1.02702151       3.00568538
N        2.03927066       1.20812107       1.69695203
C        2.84855102       1.93706979       0.72784739
C        0.81627104       0.80248839       1.47301242
C        0.04874800       0.86801072       0.28445299
C       -1.40567732       1.16355665       0.56053258
C       -1.95717811       2.35096963       0.08756850
C       -3.27135659       2.68648664       0.37531639
C       -4.05333697       1.83953875       1.14425995
C       -3.51484324       0.65367987       1.62248756
C       -2.20080992       0.31707909       1.32939056
H        3.56720814       0.42629896       2.90632715
H        2.93181222       1.99956987       3.41744293
H        1.97243186       0.53276713       3.68093855
H        2.24940908       2.22430261      -0.12883743
H        3.68084672       1.31761847       0.39617657
H        3.24246238       2.83364836       1.20715009
H        0.34169248       0.35327649       2.34191896
H        0.46398265       1.51803335      -0.48554393
H        0.06683024      -0.37136092      -0.38502777
H       -1.34586283       3.03181929      -0.49225134
H       -3.67630601       3.61946347       0.00823083
H       -5.07398003       2.10616548       1.37930865
H       -4.11974349      -0.01139989       2.22465041
H       -1.79204955      -0.60980545       1.71748452
C        2.38177542      -1.19556684      -1.44309589
C        1.12526196      -1.91570376      -1.90603717
N       -0.11360042      -1.51782536      -1.17005932
C       -0.54876578      -2.59556900      -0.24078869
C        0.48160064      -2.95265636       0.81462778
C       -1.23459394      -1.24885261      -2.11761653
C       -1.01799785      -0.04512452      -3.01645886
H        3.23519808      -1.57281299      -2.00877525
H        2.58024907      -1.35506374      -0.38092182
H        2.30551059      -0.12307940      -1.63035538
H        1.25357954      -2.99757000      -1.82054954
H        0.97387670      -1.72029794      -2.96609476
H       -0.80516492      -3.48463542      -0.83007799
H       -1.47103320      -2.25356957       0.23003361
H        0.73416813      -2.08972317       1.43257183
H        1.39973770      -3.34808541       0.37897585
H        0.07198963      -3.72195246       1.46900003
H       -1.40407832      -2.14966707      -2.72086013
H       -2.12910072      -1.09473492      -1.51266928
H       -0.94555368       0.87445563      -2.43740090
H       -0.13266000      -0.13836829      -3.64606367
H       -1.87618345       0.05267703      -3.68121659
47
Properties=species:S:1:pos:R:3 charge=1 spin=1 pbc="F F F"
C        2.66592591       1.03281471       3.00383312
N        2.04053202       1.21402090       1.69512538
C        2.84977154       1.94304728       0.72604320
C        0.81755248       0.80834504       1.47115228
C        0.05006255       0.87388686       0.28257361
C       -1.40436576       1.16945850       0.55860926
C       -1.95582135       2.35689502       0.08565103
C       -3.27000188       2.69243771       0.37335914
C       -4.05202957       1.84549229       1.14225734
C       -3.51358080       0.65961102       1.62047989
C       -2.19954512       0.32298478       1.32742266
H        3.56853253       0.43216470       2.90439784
H        2.93303208       2.00533217       3.41570385
H        1.97375642       0.53842907       3.67903105
H        2.25044019       2.23085121      -0.13031698
H        3.68173619       1.32344226       0.39383883
H        3.24415245       2.83929034       1.20557215
H        0.34297131       0.35908502       2.34003240
H        0.46534034       1.52389062      -0.48741654
H        0.06814386      -0.36548430      -0.38691027
H       -1.34446967       3.03774140      -0.49413419
H       -3.67491633       3.62543139       0.00627786
H       -5.07267475       2.11213817       1.37727494
H       -4.11851802      -0.00546682       2.22260779
H       -1.79082081      -0.60391705       1.71551291
C        2.38309354      -1.18966260      -1.44498663
C        1.12658433      -1.90980101      -1.90793733
N       -0.11227937      -1.51194306      -1.17195089
C       -0.54742884      -2.58969923      -0.24268757
C        0.48294841      -2.94679412       0.81271585
C       -1.23328006      -1.24297758      -2.11950226
C       -1.01670336      -0.03923922      -3.01833532
H        3.23651732      -1.56689252      -2.01067523
H        2.58157134      -1.34917831      -0.38281606
H        2.30681887      -0.11717221      -1.63222614
H        1.25490904      -2.99166792      -1.82246845
H        0.97519589      -1.71437799      -2.96799119
H       -0.80382850      -3.47876071      -0.83198402
H       -1.46969424      -2.24771075       0.22814672
H        0.73551883      -2.08386730       1.43066748
H        1.40108260      -3.34221595       0.37705141
H        0.07334551      -3.71609887       1.46708300
H       -1.40275448      -2.14378978      -2.72275203
H       -2.12778681      -1.08887680      -1.51455073
H       -0.94426261       0.88033583      -2.43926886
H       -0.13137072      -0.13246875      -3.64794942
H       -1.87489640       0.05856039      -3.68308374
47
Properties=species:S:1:pos:R:3 charge=1 spin=1 pbc="F F F"
C        2.66721044       1.03860791       3.00198086
N        2.04179337       1.21992073       1.69329872
C        2.85099206       1.94902477       0.72423902
C        0.81883393       0.81420169       1.46929214
C        0.05137710       0.87976300       0.28069422
C       -1.40305419       1.17536034       0.55668595
C       -1.95446460       2.36282042       0.08373357
C       -3.26864717       2.69838877       0.37140189
C       -4.05072218       1.85144583       1.14025474
C       -3.51231836       0.66554218       1.61847221
C       -2.19828032       0.32889047       1.32545476
H        3.56985693       0.43803045       2.90246853
H        2.93425194       2.01109447       3.41396477
H        1.97508099       0.54409100       3.67712354
H        2.25147129       2.23739982      -0.13179652
H        3.68262565       1.32926605       0.39150109
H        3.24584251       2.84493232       1.20399421
H        0.34425015       0.36489354       2.33814584
H        0.46669803       1.52974789      -0.48928915
H        0.06945748      -0.35960767      -0.38879277
H       -1.34307651       3.04366351      -0.49601703
H       -3.67352665       3.63139931       0.00432489
H       -5.07136948       2.11811086       1.37524123
H       -4.11729256       0.00046626       2.22056516
H       -1.78959208      -0.59802865       1.71354131
C        2.38441167      -1.18375835      -1.44687737
C        1.12790670      -1.90389827      -1.90983750
N       -0.11095833      -1.50606076      -1.17384245
C       -0.54609190      -2.58382947      -0.24458644
C        0.48429617      -2.94093187       0.81080392
C       -1.23196618      -1.23710256      -2.12138799
C       -1.01540887      -0.03335391      -3.02021178
H        3.23783657      -1.56097205      -2.01257522
H        2.58289361      -1.34329288      -0.38471030
H        2.30812715      -0.11126502      -1.63409691
H        1.25623855      -2.98576584      -1.82438736
H        0.97651507      -1.70845804      -2.96988762
H       -0.80249208      -3.47288600      -0.83389004
H       -1.46835527      -2.24185193       0.22625982
H        0.73686954      -2.07801143       1.42876312
H        1.40242751      -3.33634649       0.37512696
H        0.07470140      -3.71024527       1.46516598
H       -1.40143064      -2.13791248      -2.72464393
H       -2.12647291      -1.08301868      -1.51643217
H       -0.94297153       0.88621603      -2.44113681
H       -0.13008143      -0.12656920      -3.64983517
H       -1.87360935       0.06444376      -3.68495088
47
Properties=species:S:1:pos:R:3 charge=1 spin=1 pbc="F F F"
C        2.66849496       1.04440110       3.00012860
N        2.04305473       1.22582056       1.69147207
C        2.85221259       1.95500226       0.72243483
C        0.82011537       0.82005833       1.46743200
C        0.05269165       0.88563914       0.27881484
C       -1.40174263       1.18126219       0.55476263
C       -1.95310785       2.36874582       0.08181610
C       -3.26729246       2.70433984       0.36944464
C       -4.04941479       1.85739937       1.13825213
C       -3.51105592       0.67147333       1.61646454
C       -2.19701552       0.33479616       1.32348686
H        3.57118133       0.44389620       2.90053922
H        2.93547180       2.01685677       3.41222568
H        1.97640555       0.54975293       3.67521604
H        2.25250240       2.24394842      -0.13327607
H        3.68351511       1.33508984       0.38916336
H        3.24753258       2.85057430       1.20241628
H        0.34552898       0.37070207       2.33625928
H        0.46805573       1.53560516      -0.49116176
H        0.07077109      -0.35373105      -0.39067527
H       -1.34168335       3.04958562      -0.49789988
H       -3.67213698       3.63736723       0.00237191
H       -5.07006420       2.12408354       1.37320753
H       -4.11606709       0.00639933       2.21852253
H       -1.78836334      -0.59214024       1.71156970
C        2.38572980      -1.17785411      -1.44876811
C        1.12922907      -1.89799552      -1.91173767
N       -0.10963728      -1.50017846      -1.17573402
C       -0.54475497      -2.57795970      -0.24648532
C        0.48564394      -2.93506963       0.80889199
C       -1.23065230      -1.23122754      -2.12327372
C       -1.01411438      -0.02746861      -3.02208824
H        3.23915581      -1.55505158      -2.01447520
H        2.58421589      -1.33740745      -0.38660454
H        2.30943543      -0.10535783      -1.63596767
H        1.25756805      -2.97986377      -1.82630628
H        0.97783425      -1.70253809      -2.97178405
H       -0.80115566      -3.46701129      -0.83579607
H       -1.46701631      -2.23599311       0.22437292
H        0.73822024      -2.07215556       1.42685877
H        1.40377242      -3.33047703       0.37320252
H        0.07605728      -3.70439168       1.46324895
H       -1.40010680      -2.13203519      -2.72653584
H       -2.12515900      -1.07716056      -1.51831362
H       -0.94168046       0.89209624      -2.44300477
H       -0.12879215      -0.12066966      -3.65172092
H       -1.87232230       0.07032713      -3.68681803
47
Properties=species:S:1:pos:R:3 charge=1 spin=1 pbc="F F F"
C        2.66977948       1.05019430       2.99827634
N        2.04431609       1.23172039       1.68964541
C        2.85343311       1.96097976       0.72063065
C        0.82139682       0.82591498       1.46557185
C        0.05400620       0.89151527       0.27693545
C       -1.40043106       1.18716404       0.55283931
C       -1.95175110       2.37467122       0.07989863
C       -3.26593775       2.71029090       0.36748739
C       -4.04810740       1.86335291       1.13624953
C       -3.50979349       0.67740449       1.61445687
C       -2.19575073       0.34070185       1.32151895
H        3.57250572       0.44976195       2.89860991
H        2.93669166       2.02261907       3.41048660
H        1.97773012       0.55541486       3.67330854
H        2.25353350       2.25049702      -0.13475562
H        3.68440457       1.34091363       0.38682562
H        3.24922264       2.85621628       1.20083834
H        0.34680781       0.37651059       2.33437272
H        0.46941342       1.54146244      -0.49303437
H        0.07208471      -0.34785443      -0.39255776
H       -1.34029019       3.05550773      -0.49978272
H       -3.67074730       3.64333515       0.00041894
H       -5.06875893       2.13005623       1.37117382
H       -4.11484162       0.01233241       2.21647990
H       -1.78713461      -0.58625184       1.70959809
C        2.38704793      -1.17194986      -1.45065884
C        1.13055145      -1.89209277      -1.91363783
N       -0.10831624      -1.49429617      -1.17762559
C       -0.54341803      -2.57208994      -0.24838419
C        0.48699171      -2.92920738       0.80698006
C       -1.22933841      -1.22535252      -2.12515944
C       -1.01281989      -0.02158330      -3.02396470
H        3.24047506      -1.54913112      -2.01637519
H        2.58553816      -1.33152202      -0.38849878
H        2.31074371      -0.09945065      -1.63783844
H        1.25889755      -2.97396169      -1.82822519
H        0.97915344      -1.69661814      -2.97368048
H       -0.79981924      -3.46113658      -0.83770209
H       -1.46567735      -2.23013429       0.22248602
H        0.73957095      -2.06629969       1.42495441
H        1.40511733      -3.32460757       0.37127808
H        0.07741316      -3.69853809       1.46133192
H       -1.39878297      -2.12615789      -2.72842774
H       -2.12384509      -1.07130244      -1.52019507
H       -0.94038939       0.89797644      -2.44487273
H       -0.12750286      -0.11477012      -3.65360667
H       -1.87103525       0.07621050      -3.68868517
47
Properties=species:S:1:pos:R:3 charge=1 spin=1 pbc="F F F"
C        2.67106400       1.05598750       2.99642408
N        2.04557745       1.23762022       1.68781876
C        2.85465363       1.96695725       0.71882646
C        0.82267827       0.83177163       1.46371171
C        0.05532075       0.89739141       0.27505607
C       -1.39911950       1.19306589       0.55091600
C       -1.95039434       2.38059661       0.07798116
C       -3.26458304       2.71624197       0.36553014
C       -4.04680000       1.86930645       1.13424692
C       -3.50853105       0.68333564       1.61244920
C       -2.19448593       0.34660754       1.31955105
H        3.57383012       0.45562770       2.89668060
H        2.93791152       2.02838137       3.40874752
H        1.97905468       0.56107680       3.67140104
H        2.25456461       2.25704562      -0.13623516
H        3.68529404       1.34673742       0.38448788
H        3.25091271       2.86185826       1.19926040
H        0.34808665       0.38231912       2.33248616
H        0.47077111       1.54731971      -0.49490698
H        0.07339833      -0.34197781      -0.39444026
H       -1.33889704       3.06142984      -0.50166557
H       -3.66935762       3.64930307      -0.00153403
H       -5.06745365       2.13602892       1.36914011
H       -4.11361616       0.01826548       2.21443728
H       -1.78590587      -0.58036344       1.70762648
C        2.38836605      -1.16604562      -1.45254958
C        1.13187382      -1.88619003      -1.91553800
N       -0.10699519      -1.48841387      -1.17951716
C       -0.54208110      -2.56622017      -0.25028307
C        0.48833948      -2.92334514       0.80506813
C       -1.22802453      -1.21947749      -2.12704517
C       -1.01152540      -0.01569800      -3.02584116
H        3.24179430      -1.54321065      -2.01827517
H        2.58686043      -1.32563659      -0.39039302
H        2.31205198      -0.09354346      -1.63970920
H        1.26022705      -2.96805961      -1.83014410
H        0.98047262      -1.69069819      -2.97557691
H       -0.79848282      -3.45526187      -0.83960812
H       -1.46433839      -2.22427548       0.22059913
H        0.74092165      -2.06044382       1.42305006
H        1.40646224      -3.31873811       0.36935363
H        0.07876904      -3.69268449       1.45941490
H       -1.39745913      -2.12028060      -2.73031964
H       -2.12253118      -1.06544432      -1.52207652
H       -0.93909832       0.90385665      -2.44674068
H       -0.12621358      -0.10887057      -3.65549242
H       -1.86974820       0.08209386      -3.69055232
47
Properties=species:S:1:pos:R:3 charge=1 spin=1 pbc="F F F"
C        2.67234853       1.06178070       2.99457182
N        2.04683881       1.24352005       1.68599211
C        2.85587415       1.97293474       0.71702227
C        0.82395971       0.83762827       1.46185157
C        0.05663530       0.90326755       0.27317669
C       -1.39780794       1.19896774       0.54899268
C       -1.94903759       2.38652201       0.07606370
C       -3.26322834       2.72219303       0.36357289
C       -4.04549261       1.87525999       1.13224432
C       -3.50726861       0.68926679       1.61044153
C       -2.19322113       0.35251323       1.31758315
H        3.57515452       0.46149345       2.89475129
H        2.93913137       2.03414367       3.40700844
H        1.98037924       0.56673873       3.66949354
H        2.25559571       2.26359423      -0.13771471
H        3.68618350       1.35256120       0.38215015
H        3.25260277       2.86750024       1.19768247
H        0.34936548       0.38812765       2.33059960
H        0.47212881       1.55317698      -0.49677958
H        0.07471195      -0.33610118      -0.39632276
H       -1.33750388       3.06735195      -0.50354841
H       -3.66796795       3.65527099      -0.00348701
H       -5.06614838       2.14200160       1.36710640
H       -4.11239069       0.02419856       2.21239465
H       -1.78467714      -0.57447504       1.70565487
C        2.38968418      -1.16014138      -1.45444032
C        1.13319619      -1.88028728      -1.91743817
N       -0.10567415      -1.48253157      -1.18140873
C       -0.54074416      -2.56035041      -0.25218194
C        0.48968725      -2.91748289       0.80315620
C       -1.22671065      -1.21360247      -2.12893090
C       -1.01023091      -0.00981269      -3.02771762
H        3.24311355      -1.53729018      -2.02017515
H        2.58818271      -1.31975116      -0.39228727
H        2.31336026      -0.08763627      -1.64157997
H        1.26155656      -2.96215754      -1.83206301
H        0.98179180      -1.68477824      -2.97747334
H       -0.79714640      -3.44938716      -0.84151414
H       -1.46299942      -2.21841666       0.21871223
H        0.74227236      -2.05458796       1.42114570
H        1.40780715      -3.31286865       0.36742919
H        0.08012492      -3.68683090       1.45749787
H       -1.39613529      -2.11440330      -2.73221154
H       -2.12121727      -1.05958620      -1.52395797
H       -0.93780724       0.90973685      -2.44860864
H       -0.12492430      -0.10297103      -3.65737817
H       -1.86846115       0.08797723      -3.69241946
47
Properties=species:S:1:pos:R:3 charge=1 spin=1 pbc="F F F"
C        2.67363305       1.06757390       2.99271955
N        2.04810017       1.24941988       1.68416545
C        2.85709467       1.97891223       0.71521809
C        0.82524116       0.84348492       1.45999143
C        0.05794985       0.90914369       0.27129730
C       -1.39649637       1.20486959       0.54706936
C       -1.94768084       2.39244741       0.07414623
C       -3.26187363       2.72814410       0.36161564
C       -4.04418522       1.88121353       1.13024171
C       -3.50600617       0.69519795       1.60843386
C       -2.19195633       0.35841893       1.31561525
H        3.57647891       0.46735919       2.89282198
H        2.94035123       2.03990597       3.40526936
H        1.98170381       0.57240066       3.66758604
H        2.25662682       2.27014283      -0.13919425
H        3.68707296       1.35838499       0.37981241
H        3.25429284       2.87314221       1.19610453
H        0.35064431       0.39393617       2.32871305
H        0.47348650       1.55903425      -0.49865219
H        0.07602557      -0.33022456      -0.39820526
H       -1.33611072       3.07327407      -0.50543126
H       -3.66657827       3.66123890      -0.00543998
H       -5.06484310       2.14797429       1.36507269
H       -4.11116522       0.03013163       2.21035202
H       -1.78344840      -0.56858664       1.70368326
C        2.39100231      -1.15423713      -1.45633106
C        1.13451856      -1.87438453      -1.91933833
N       -0.10435310      -1.47664927      -1.18330030
C       -0.53940723      -2.55448064      -0.25408082
C        0.49103502      -2.91162065       0.80124427
C       -1.22539677      -1.20772745      -2.13081663
C       -1.00893643      -0.00392739      -3.02959407
H        3.24443279      -1.53136971      -2.02207514
H        2.58950498      -1.31386573      -0.39418151
H        2.31466854      -0.08172908      -1.64345073
H        1.26288606      -2.95625546      -1.83398192
H        0.98311099      -1.67885829      -2.97936976
H       -0.79580998      -3.44351245      -0.84342017
H       -1.46166046      -2.21255784       0.21682533
H        0.74362306      -2.04873209       1.41924135
H        1.40915205      -3.30699919       0.36550474
H        0.08148080      -3.68097731       1.45558085
H       -1.39481145      -2.10852601      -2.73410344
H       -2.11990336      -1.05372808      -1.52583942
H       -0.93651617       0.91561706      -2.45047660
H       -0.12363501      -0.09707148      -3.65926392
H       -1.86717410       0.09386060      -3.69428661
47
Properties=species:S:1:pos:R:3 charge=1 spin=1 pbc="F F F"
C        2.67491757       1.07336709       2.99086729
N        2.04936153       1.25531971       1.68233880
C        2.85831520       1.98488973       0.71341390
C        0.82652261       0.84934157       1.45813128
C        0.05926440       0.91501982       0.26941792
C       -1.39518481       1.21077143       0.54514604
C       -1.94632409       2.39837281       0.07222876
C       -3.26051892       2.73409516       0.35965839
C       -4.04287783       1.88716707       1.12823911
C       -3.50474374       0.70112910       1.60642618
C       -2.19069154       0.36432462       1.31364734
H        3.57780331       0.47322494       2.89089267
H        2.94157109       2.04566827       3.40353027
H        1.98302837       0.57806259       3.66567853
H        2.25765792       2.27669143      -0.14067380
H        3.68796242       1.36420878       0.37747467
H        3.25598290       2.87878419       1.19452659
H        0.35192314       0.39974470       2.32682649
H        0.47484419       1.56489153      -0.50052480
H        0.07733918      -0.32434794      -0.40008775
H       -1.33471756       3.07919618      -0.50731410
H       -3.66518859       3.66720682      -0.00739295
H       -5.06353783       2.15394698       1.36303898
H       -4.10993975       0.03606471       2.20830939
H       -1.78221967      -0.56269823       1.70171166
C        2.39232044      -1.14833289      -1.45822179
C        1.13584094      -1.86848178      -1.92123850
N       -0.10303206      -1.47076698      -1.18519186
C       -0.53807029      -2.54861088      -0.25597969
C        0.49238278      -2.90575840       0.79933234
C       -1.22408288      -1.20185243      -2.13270235
C       -1.00764194       0.00195792      -3.03147053
H        3.24575204      -1.52544925      -2.02397512
H        2.59082725      -1.30798030      -0.39607575
H        2.31597682      -0.07582190      -1.64532150
H        1.26421556      -2.95035338      -1.83590084
H        0.98443017      -1.67293834      -2.98126619
H       -0.79447356      -3.43763774      -0.84532619
H       -1.46032150      -2.20669902       0.21493843
H        0.74497377      -2.04287622       1.41733699
H        1.41049696      -3.30112973       0.36358030
H        0.08283669      -3.67512372       1.45366382
H       -1.39348762      -2.10264871      -2.73599535
H       -2.11858946      -1.04786996      -1.52772086
H       -0.93522510       0.92149726      -2.45234456
H       -0.12234573      -0.09117194      -3.66114967
H       -1.86588705       0.09974397      -3.69615375
47
Properties=species:S:1:pos:R:3 charge=1 spin=1 pbc="F F F"
C        2.67620210       1.07916029       2.98901503
N        2.05062289       1.26121954       1.68051214
C        2.85953572       1.99086722       0.71160972
C        0.82780405       0.85519821       1.45627114
C        0.06057895       0.92089596       0.26753853
C       -1.39387324       1.21667328       0.54322273
C       -1.94496733       2.40429820       0.07031130
C       -3.25916421       2.74004623       0.35770114
C       -4.04157043       1.89312061       1.12623650
C       -3.50348130       0.70706026       1.60441851
C       -2.18942674       0.37023031       1.31167944
H        3.57912770       0.47909069       2.88896336
H        2.94279095       2.05143057       3.40179119
H        1.98435294       0.58372453       3.66377103
H        2.25868903       2.28324004      -0.14215334
H        3.68885189       1.37003257       0.37513694
H        3.25767297       2.88442617       1.19294866
H        0.35320198       0.40555322       2.32493993
H        0.47620189       1.57074880      -0.50239741
H        0.07865280      -0.31847131      -0.40197025
H       -1.33332440       3.08511829      -0.50919695
H       -3.66379892       3.67317474      -0.00934593
H       -5.06223255       2.15991966       1.36100527
H       -4.10871429       0.04199778       2.20626677
H       -1.78099093      -0.55680983       1.69974005
C        2.39363856      -1.14242864      -1.46011253
C        1.13716331      -1.86257904      -1.92313866
N       -0.10171101      -1.46488468      -1.18708343
C       -0.53673336      -2.54274111      -0.25787857
C        0.49373055      -2.89989616       0.79742041
C       -1.22276900      -1.19597740      -2.13458808
C       -1.00634745       0.00784322      -3.03334699
H        3.24707128      -1.51952878      -2.02587511
H        2.59214953      -1.30209487      -0.39796999
H        2.31728510      -0.06991471      -1.64719226
H        1.26554507      -2.94445131      -1.83781975
H        0.98574936      -1.66701839      -2.98316262
H       -0.79313714      -3.43176303      -0.84723222
H       -1.45898253      -2.20084020       0.21305154
H        0.74632447      -2.03702035       1.41543264
H        1.41184187      -3.29526027       0.36165585
H        0.08419257      -3.66927012       1.45174680
H       -1.39216378      -2.09677142      -2.73788725
H       -2.11727555      -1.04201184      -1.52960231
H       -0.93393402       0.92737747      -2.45421251
H       -0.12105644      -0.08527239      -3.66303542
H       -1.86460000       0.10562733      -3.69802090
47
Properties=species:S:1:pos:R:3 charge=1 spin=1 pbc="F F F"
C        2.67748662       1.08495349       2.98716277
N        2.05188425       1.26711937       1.67868549
C        2.86075624       1.99684471       0.70980553
C        0.82908550       0.86105486       1.45441100
C        0.06189350       0.92677210       0.26565915
C       -1.39256168       1.22257513       0.54129941
C       -1.94361058       2.41022360       0.06839383
C       -3.25780950       2.74599729       0.35574389
C       -4.04026304       1.89907415       1.12423390
C       -3.50221886       0.71299141       1.60241084
C       -2.18816194       0.37613600       1.30971154
H        3.58045210       0.48495644       2.88703405
H        2.94401081       2.05719287       3.40005211
H        1.98567750       0.58938646       3.66186353
H        2.25972013       2.28978864      -0.14363289
H        3.68974135       1.37585636       0.37279920
H        3.25936303       2.89006815       1.19137072
H        0.35448081       0.41136175       2.32305337
H        0.47755958       1.57660607      -0.50427002
H        0.07996642      -0.31259469      -0.40385275
H       -1.33193124       3.09104040      -0.51107979
H       -3.66240924       3.67914266      -0.01129890
H       -5.06092728       2.16589235       1.35897156
H       -4.10748882       0.04793086       2.20422414
H       -1.77976220      -0.55092143       1.69776844
C        2.39495669      -1.13652440      -1.46200327
C        1.13848568      -1.85667629      -1.92503883
N       -0.10038997      -1.45900238      -1.18897500
C       -0.53539642      -2.53687135      -0.25977744
C        0.49507832      -2.89403391       0.79550848
C       -1.22145512      -1.19010238      -2.13647381
C       -1.00505296       0.01372853      -3.03522345
H        3.24839053      -1.51360831      -2.02777509
H        2.59347180      -1.29620944      -0.39986423
H        2.31859338      -0.06400752      -1.64906303
H        1.26687457      -2.93854923      -1.83973866
H        0.98706854      -1.66109844      -2.98505905
H       -0.79180072      -3.42588832      -0.84913824
H       -1.45764357      -2.19498138       0.21116464
H        0.74767518      -2.03116448       1.41352828
H        1.41318678      -3.28939081       0.35973141
H        0.08554845      -3.66341653       1.44982977
H       -1.39083994      -2.09089412      -2.73977915
H       -2.11596164      -1.03615372      -1.53148376
H       -0.93264295       0.93325767      -2.45608047
H       -0.11976716      -0.07937285      -3.66492117
H       -1.86331295       0.11151070      -3.69988804
