47
Properties=species:S:1:pos:R:3 charge=1 spin=1 pbc="F F F"
C        2.82154586       1.09074930       2.94885554
N        2.13951352       1.33546776       1.69272255
C        2.91393783       2.08680014       0.72542202
C        0.86698696       0.95745026       1.50968712
C        0.05563420       1.13195915       0.43900428
C       -1.41103602       1.24408228       0.63292731
C       -2.07112314       2.31706505       0.01677579
C       -3.41346775       2.56866661       0.25807321
C       -4.13206937       1.75835437       1.12795019
C       -3.48959647       0.70103312       1.76217377
C       -2.14638551       0.44540403       1.51448807
H        3.71857623       0.48787204       2.79186310
H        3.13204546       2.03134581       3.41560129
H        2.17033709       0.56515279       3.64483110
H        2.28249380       2.48009766      -0.06906884
H        3.69899273       1.46467142       0.28230906
H        3.40087583       2.93425161       1.22040408
H        0.41187288       0.54064681       2.40094134
H        0.44655652       1.68976944      -0.40725006
H        0.03565898      -0.65273772      -0.69280727
H       -1.51651589       2.99027276      -0.63029891
H       -3.89774613       3.40867677      -0.22899017
H       -5.18011996       1.94974631       1.31899034
H       -4.03700820       0.06310496       2.44977038
H       -1.66449115      -0.37941974       2.03607456
C        2.42193841      -1.23507053      -1.39085986
C        1.15626682      -1.87113509      -1.92053859
N       -0.12336040      -1.44703413      -1.23419503
C       -0.63687500      -2.51193506      -0.30027589
C        0.34008058      -2.93290905       0.77505694
C       -1.20258502      -1.08868150      -2.22057631
C       -0.88255161       0.09367686      -3.10928962
H        3.26970714      -1.66251057      -1.93042449
H        2.56631366      -1.42615357      -0.32895181
H        2.41972611      -0.16099294      -1.56594626
H        1.18336092      -2.95401423      -1.83275966
H        1.03005288      -1.64746805      -2.97335527
H       -0.88984092      -3.34350585      -0.95478269
H       -1.56042932      -2.12520950       0.12543267
H        0.61864534      -2.09815816       1.41466168
H        1.24322867      -3.38965328       0.37171270
H       -0.14988530      -3.68419580       1.39500309
H       -1.34792169      -1.99634084      -2.79826957
H       -2.10030773      -0.90233696      -1.63622666
H       -0.76993760       1.01007542      -2.53432568
H        0.00194264      -0.05532346      -3.72759057
H       -1.72493636       0.23027845      -3.78700682
47
Properties=species:S:1:pos:R:3 charge=1 spin=1 pbc="F F F"
C        2.82164885       1.09082952       2.95030699
N        2.13926064       1.33550756       1.69436464
C        2.91343307       2.08662413       0.72668909
C        0.86697357       0.95666431       1.51138551
C        0.05597521       1.12990647       0.44021869
C       -1.41075176       1.24253362       0.63358289
C       -2.07015832       2.31636009       0.01813802
C       -3.41251714       2.56819016       0.25909590
C       -4.13170912       1.75735746       1.12802893
C       -3.48990537       0.69915855       1.76145731
C       -2.14671986       0.44314224       1.51391742
H        3.71832858       0.48745009       2.79320779
H        3.13275251       2.03142633       3.41662927
H        2.17041766       0.56576655       3.64666327
H        2.28157732       2.48068322      -0.06711833
H        3.69778088       1.46422241       0.28269321
H        3.40126490       2.93355927       1.22165464
H        0.41172287       0.54051716       2.40288331
H        0.44736108       1.68657894      -0.40654006
H        0.03354765      -0.65986142      -0.68216860
H       -1.51503826       2.98996366      -0.62808806
H       -3.89634421       3.40877755      -0.22742295
H       -5.17974972       1.94898793       1.31889278
H       -4.03783164       0.06078162       2.44822826
H       -1.66531981      -0.38259995       2.03454293
C        2.42140913      -1.22907205      -1.38839748
C        1.15751133      -1.86603008      -1.92110638
N       -0.12383331      -1.44742370      -1.23433965
C       -0.63829044      -2.52097761      -0.31032741
C        0.33474894      -2.94129220       0.76892417
C       -1.20167026      -1.08094088      -2.21921240
C       -0.87824171       0.10241256      -3.10532177
H        3.27047420      -1.65369021      -1.92818290
H        2.56483870      -1.42298750      -0.32682257
H        2.41754343      -0.15451194      -1.56034035
H        1.18740611      -2.94910119      -1.83661204
H        1.03150455      -1.63953720      -2.97331703
H       -0.88245994      -3.35042289      -0.97110861
H       -1.56671955      -2.14185837       0.11205451
H        0.60428432      -2.10767581       1.41421229
H        1.24327157      -3.39037215       0.36867421
H       -0.15422808      -3.69851213       1.38256691
H       -1.35103755      -1.98624176      -2.79964462
H       -2.09829108      -0.89281182      -1.63373065
H       -0.76041356       1.01691631      -2.52840885
H        0.00408199      -0.04881621      -3.72617300
H       -1.72168731       0.24418964      -3.78074488
47
Properties=species:S:1:pos:R:3 charge=1 spin=1 pbc="F F F"
C        2.82175184       1.09090975       2.95175844
N        2.13900775       1.33554736       1.69600672
C        2.91292830       2.08644811       0.72795617
C        0.86696019       0.95587837       1.51308389
C        0.05631623       1.12785378       0.44143310
C       -1.41046751       1.24098497       0.63423847
C       -2.06919350       2.31565514       0.01950024
C       -3.41156653       2.56771371       0.26011858
C       -4.13134886       1.75636056       1.12810768
C       -3.49021427       0.69728398       1.76074084
C       -2.14705422       0.44088045       1.51334676
H        3.71808092       0.48702814       2.79455247
H        3.13345957       2.03150685       3.41765725
H        2.17049824       0.56638032       3.64849545
H        2.28066083       2.48126877      -0.06516781
H        3.69656904       1.46377339       0.28307735
H        3.40165398       2.93286693       1.22290520
H        0.41157286       0.54038751       2.40482527
H        0.44816563       1.68338845      -0.40583007
H        0.03143633      -0.66698511      -0.67152993
H       -1.51356062       2.98965456      -0.62587721
H       -3.89494230       3.40887834      -0.22585574
H       -5.17937948       1.94822956       1.31879522
H       -4.03865509       0.05845829       2.44668615
H       -1.66614846      -0.38578015       2.03301129
C        2.42087986      -1.22307357      -1.38593509
C        1.15875585      -1.86092508      -1.92167417
N       -0.12430623      -1.44781326      -1.23448426
C       -0.63970588      -2.53002017      -0.32037894
C        0.32941729      -2.94967534       0.76279140
C       -1.20075550      -1.07320027      -2.21784848
C       -0.87393181       0.11114825      -3.10135392
H        3.27124126      -1.64486986      -1.92594131
H        2.56336373      -1.41982144      -0.32469332
H        2.41536076      -0.14803093      -1.55473445
H        1.19145131      -2.94418815      -1.84046441
H        1.03295623      -1.63160635      -2.97327879
H       -0.87507896      -3.35733992      -0.98743452
H       -1.57300979      -2.15850725       0.09867636
H        0.58992330      -2.11719347       1.41376289
H        1.24331448      -3.39109101       0.36563571
H       -0.15857086      -3.71282845       1.37013072
H       -1.35415341      -1.97614269      -2.80101968
H       -2.09627444      -0.88328668      -1.63123464
H       -0.75088953       1.02375721      -2.52249203
H        0.00622133      -0.04230895      -3.72475543
H       -1.71843826       0.25810084      -3.77448295
47
Properties=species:S:1:pos:R:3 charge=1 spin=1 pbc="F F F"
C        2.82185483       1.09098998       2.95320989
N        2.13875487       1.33558716       1.69764881
C        2.91242353       2.08627209       0.72922325
C        0.86694680       0.95509242       1.51478227
C        0.05665725       1.12580109       0.44264751
C       -1.41018326       1.23943631       0.63489405
C       -2.06822868       2.31495018       0.02086247
C       -3.41061592       2.56723726       0.26114127
C       -4.13098861       1.75536366       1.12818642
C       -3.49052316       0.69540942       1.76002438
C       -2.14738857       0.43861865       1.51277610
H        3.71783326       0.48660619       2.79589716
H        3.13416662       2.03158738       3.41868523
H        2.17057881       0.56699408       3.65032762
H        2.27974435       2.48185432      -0.06321730
H        3.69535719       1.46332438       0.28346150
H        3.40204306       2.93217460       1.22415576
H        0.41142285       0.54025786       2.40676724
H        0.44897019       1.68019795      -0.40512007
H        0.02932501      -0.67410880      -0.66089126
H       -1.51208299       2.98934546      -0.62366636
H       -3.89354038       3.40897912      -0.22428852
H       -5.17900924       1.94747119       1.31869766
H       -4.03947853       0.05613495       2.44514403
H       -1.66697711      -0.38896035       2.03147965
C        2.42035058      -1.21707509      -1.38347271
C        1.16000036      -1.85582008      -1.92224195
N       -0.12477914      -1.44820283      -1.23462888
C       -0.64112132      -2.53906273      -0.33043046
C        0.32408565      -2.95805849       0.75665863
C       -1.19984074      -1.06545965      -2.21648457
C       -0.86962191       0.11988394      -3.09738607
H        3.27200832      -1.63604950      -1.92369972
H        2.56188876      -1.41665537      -0.32256408
H        2.41317808      -0.14154993      -1.54912854
H        1.19549651      -2.93927511      -1.84431679
H        1.03440790      -1.62367551      -2.97324055
H       -0.86769797      -3.36425695      -1.00376044
H       -1.57930002      -2.17515612       0.08529820
H        0.57556228      -2.12671113       1.41331350
H        1.24335738      -3.39180988       0.36259721
H       -0.16291364      -3.72714477       1.35769454
H       -1.35726927      -1.96604362      -2.80239473
H       -2.09425779      -0.87376154      -1.62873862
H       -0.74136549       1.03059810      -2.51657520
H        0.00836068      -0.03580170      -3.72333786
H       -1.71518921       0.27201204      -3.76822101
47
Properties=species:S:1:pos:R:3 charge=1 spin=1 pbc="F F F"
C        2.82195782       1.09107021       2.95466134
N        2.13850198       1.33562696       1.69929090
C        2.91191877       2.08609608       0.73049032
C        0.86693342       0.95430648       1.51648065
C        0.05699826       1.12374841       0.44386192
C       -1.40989900       1.23788765       0.63554963
C       -2.06726386       2.31424523       0.02222469
C       -3.40966531       2.56676081       0.26216396
C       -4.13062836       1.75436675       1.12826517
C       -3.49083206       0.69353485       1.75930791
C       -2.14772292       0.43635686       1.51220545
H        3.71758560       0.48618424       2.79724184
H        3.13487368       2.03166790       3.41971321
H        2.17065938       0.56760785       3.65215980
H        2.27882786       2.48243988      -0.06126679
H        3.69414534       1.46287536       0.28384565
H        3.40243213       2.93148226       1.22540633
H        0.41127284       0.54012822       2.40870921
H        0.44977474       1.67700745      -0.40441008
H        0.02721368      -0.68123250      -0.65025259
H       -1.51060535       2.98903636      -0.62145551
H       -3.89213847       3.40907990      -0.22272131
H       -5.17863900       1.94671282       1.31860011
H       -4.04030198       0.05381162       2.44360192
H       -1.66780576      -0.39214055       2.02994801
C        2.41982130      -1.21107661      -1.38101033
C        1.16124487      -1.85071507      -1.92280974
N       -0.12525205      -1.44859240      -1.23477349
C       -0.64253676      -2.54810529      -0.34048198
C        0.31875400      -2.96644163       0.75052586
C       -1.19892598      -1.05771903      -2.21512065
C       -0.86531201       0.12861963      -3.09341822
H        3.27277538      -1.62722915      -1.92145813
H        2.56041380      -1.41348931      -0.32043483
H        2.41099541      -0.13506892      -1.54352263
H        1.19954170      -2.93436207      -1.84816917
H        1.03585957      -1.61574466      -2.97320231
H       -0.86031699      -3.37117399      -1.02008636
H       -1.58559026      -2.19180500       0.07192004
H        0.56120126      -2.13622878       1.41286411
H        1.24340029      -3.39252874       0.35955871
H       -0.16725641      -3.74146110       1.34525835
H       -1.36038513      -1.95594454      -2.80376978
H       -2.09224115      -0.86423640      -1.62624261
H       -0.73184146       1.03743900      -2.51065838
H        0.01050003      -0.02929445      -3.72192029
H       -1.71194016       0.28592324      -3.76195907
47
Properties=species:S:1:pos:R:3 charge=1 spin=1 pbc="F F F"
C        2.82206081       1.09115043       2.95611279
N        2.13824909       1.33566676       1.70093299
C        2.91141400       2.08592006       0.73175740
C        0.86692004       0.95352053       1.51817904
C        0.05733928       1.12169572       0.44507633
C       -1.40961475       1.23633899       0.63620521
C       -2.06629904       2.31354028       0.02358692
C       -3.40871469       2.56628436       0.26318665
C       -4.13026811       1.75336985       1.12834392
C       -3.49114096       0.69166028       1.75859145
C       -2.14805727       0.43409507       1.51163479
H        3.71733795       0.48576229       2.79858652
H        3.13558073       2.03174842       3.42074119
H        2.17073995       0.56822161       3.65399197
H        2.27791137       2.48302543      -0.05931628
H        3.69293349       1.46242634       0.28422980
H        3.40282121       2.93078992       1.22665689
H        0.41112283       0.53999857       2.41065118
H        0.45057929       1.67381695      -0.40370008
H        0.02510236      -0.68835619      -0.63961391
H       -1.50912772       2.98872726      -0.61924466
H       -3.89073655       3.40918068      -0.22115409
H       -5.17826876       1.94595444       1.31850255
H       -4.04112543       0.05148828       2.44205980
H       -1.66863442      -0.39532076       2.02841638
C        2.41929202      -1.20507813      -1.37854795
C        1.16248938      -1.84561007      -1.92337753
N       -0.12572496      -1.44898197      -1.23491811
C       -0.64395220      -2.55714784      -0.35053350
C        0.31342236      -2.97482478       0.74439309
C       -1.19801122      -1.04997841      -2.21375673
C       -0.86100211       0.13735533      -3.08945037
H        3.27354244      -1.61840879      -1.91921654
H        2.55893883      -1.41032324      -0.31830559
H        2.40881274      -0.12858791      -1.53791672
H        1.20358690      -2.92944903      -1.85202155
H        1.03731124      -1.60781381      -2.97316407
H       -0.85293601      -3.37809102      -1.03641228
H       -1.59188049      -2.20845388       0.05854188
H        0.54684023      -2.14574644       1.41241472
H        1.24344319      -3.39324760       0.35652022
H       -0.17159919      -3.75577742       1.33282217
H       -1.36350099      -1.94584547      -2.80514483
H       -2.09022450      -0.85471126      -1.62374660
H       -0.72231743       1.04427989      -2.50474155
H        0.01263938      -0.02278720      -3.72050271
H       -1.70869111       0.29983443      -3.75569713
47
Properties=species:S:1:pos:R:3 charge=1 spin=1 pbc="F F F"
C        2.82216380       1.09123066       2.95756424
N        2.13799621       1.33570656       1.70257508
C        2.91090923       2.08574405       0.73302448
C        0.86690665       0.95273459       1.51987742
C        0.05768029       1.11964303       0.44629074
C       -1.40933050       1.23479033       0.63686079
C       -2.06533421       2.31283532       0.02494914
C       -3.40776408       2.56580791       0.26420934
C       -4.12990786       1.75237295       1.12842266
C       -3.49144986       0.68978571       1.75787498
C       -2.14839163       0.43183328       1.51106413
H        3.71709029       0.48534033       2.79993121
H        3.13628779       2.03182894       3.42176917
H        2.17082053       0.56883538       3.65582415
H        2.27699489       2.48361098      -0.05736577
H        3.69172164       1.46197733       0.28461395
H        3.40321029       2.93009758       1.22790745
H        0.41097283       0.53986892       2.41259315
H        0.45138385       1.67062645      -0.40299009
H        0.02299103      -0.69547988      -0.62897524
H       -1.50765008       2.98841816      -0.61703381
H       -3.88933464       3.40928147      -0.21958688
H       -5.17789852       1.94519607       1.31840499
H       -4.04194887       0.04916495       2.44051769
H       -1.66946307      -0.39850096       2.02688474
C        2.41876275      -1.19907966      -1.37608556
C        1.16373390      -1.84050507      -1.92394532
N       -0.12619787      -1.44937154      -1.23506272
C       -0.64536764      -2.56619040      -0.36058502
C        0.30809071      -2.98320792       0.73826032
C       -1.19709646      -1.04223779      -2.21239282
C       -0.85669221       0.14609102      -3.08548252
H        3.27430950      -1.60958844      -1.91697495
H        2.55746386      -1.40715718      -0.31617634
H        2.40663006      -0.12210691      -1.53231081
H        1.20763210      -2.92453599      -1.85587393
H        1.03876292      -1.59988296      -2.97312583
H       -0.84555503      -3.38500805      -1.05273819
H       -1.59817073      -2.22510275       0.04516373
H        0.53247921      -2.15526410       1.41196532
H        1.24348610      -3.39396647       0.35348172
H       -0.17594197      -3.77009374       1.32038598
H       -1.36661685      -1.93574639      -2.80651988
H       -2.08820786      -0.84518612      -1.62125059
H       -0.71279339       1.05112079      -2.49882473
H        0.01477872      -0.01627995      -3.71908514
H       -1.70544206       0.31374563      -3.74943520
47
Properties=species:S:1:pos:R:3 charge=1 spin=1 pbc="F F F"
C        2.82226679       1.09131089       2.95901568
N        2.13774332       1.33574636       1.70421716
C        2.91040447       2.08556803       0.73429155
C        0.86689327       0.95194865       1.52157580
C        0.05802131       1.11759035       0.44750515
C       -1.40904624       1.23324168       0.63751637
C       -2.06436939       2.31213037       0.02631137
C       -3.40681347       2.56533146       0.26523202
C       -4.12954760       1.75137604       1.12850141
C       -3.49175876       0.68791114       1.75715852
C       -2.14872598       0.42957149       1.51049348
H        3.71684263       0.48491838       2.80127589
H        3.13699484       2.03190946       3.42279715
H        2.17090110       0.56944914       3.65765633
H        2.27607840       2.48419654      -0.05541525
H        3.69050980       1.46152831       0.28499810
H        3.40359936       2.92940524       1.22915801
H        0.41082282       0.53973927       2.41453512
H        0.45218840       1.66743596      -0.40228009
H        0.02087971      -0.70260358      -0.61833657
H       -1.50617245       2.98810906      -0.61482296
H       -3.88793272       3.40938225      -0.21801966
H       -5.17752828       1.94443770       1.31830743
H       -4.04277232       0.04684161       2.43897558
H       -1.67029172      -0.40168116       2.02535310
C        2.41823347      -1.19308118      -1.37362318
C        1.16497841      -1.83540006      -1.92451311
N       -0.12667078      -1.44976110      -1.23520734
C       -0.64678308      -2.57523296      -0.37063655
C        0.30275907      -2.99159107       0.73212755
C       -1.19618170      -1.03449718      -2.21102890
C       -0.85238230       0.15482671      -3.08151468
H        3.27507657      -1.60076808      -1.91473336
H        2.55598890      -1.40399112      -0.31404710
H        2.40444739      -0.11562590      -1.52670491
H        1.21167729      -2.91962295      -1.85972630
H        1.04021459      -1.59195211      -2.97308759
H       -0.83817405      -3.39192509      -1.06906411
H       -1.60446097      -2.24175163       0.03178557
H        0.51811819      -2.16478175       1.41151593
H        1.24352901      -3.39468533       0.35044322
H       -0.18028475      -3.78441007       1.30794980
H       -1.36973271      -1.92564732      -2.80789493
H       -2.08619121      -0.83566098      -1.61875458
H       -0.70326936       1.05796168      -2.49290790
H        0.01691807      -0.00977270      -3.71766757
H       -1.70219301       0.32765683      -3.74317326
47
Properties=species:S:1:pos:R:3 charge=1 spin=1 pbc="F F F"
C        2.82236977       1.09139111       2.96046713
N        2.13749044       1.33578616       1.70585925
C        2.90989970       2.08539201       0.73555863
C        0.86687988       0.95116270       1.52327418
C        0.05836233       1.11553766       0.44871956
C       -1.40876199       1.23169302       0.63817195
C       -2.06340457       2.31142542       0.02767359
C       -3.40586286       2.56485501       0.26625471
C       -4.12918735       1.75037914       1.12858016
C       -3.49206766       0.68603657       1.75644205
C       -2.14906033       0.42730970       1.50992282
H        3.71659498       0.48449643       2.80262058
H        3.13770190       2.03198998       3.42382513
H        2.17098167       0.57006291       3.65948850
H        2.27516192       2.48478209      -0.05346474
H        3.68929795       1.46107930       0.28538224
H        3.40398844       2.92871290       1.23040857
H        0.41067281       0.53960962       2.41647708
H        0.45299295       1.66424546      -0.40157010
H        0.01876839      -0.70972727      -0.60769790
H       -1.50469481       2.98779996      -0.61261211
H       -3.88653081       3.40948303      -0.21645245
H       -5.17715804       1.94367933       1.31820987
H       -4.04359576       0.04451828       2.43743346
H       -1.67112037      -0.40486136       2.02382147
C        2.41770419      -1.18708270      -1.37116080
C        1.16622292      -1.83029506      -1.92508090
N       -0.12714370      -1.45015067      -1.23535195
C       -0.64819852      -2.58427551      -0.38068807
C        0.29742742      -2.99997421       0.72599478
C       -1.19526694      -1.02675656      -2.20966498
C       -0.84807240       0.16356241      -3.07754683
H        3.27584363      -1.59194773      -1.91249177
H        2.55451393      -1.40082505      -0.31191785
H        2.40226471      -0.10914490      -1.52109900
H        1.21572249      -2.91470991      -1.86357868
H        1.04166626      -1.58402126      -2.97304935
H       -0.83079307      -3.39884212      -1.08539003
H       -1.61075120      -2.25840051       0.01840741
H        0.50375717      -2.17429941       1.41106654
H        1.24357191      -3.39540420       0.34740472
H       -0.18462753      -3.79872639       1.29551361
H       -1.37284857      -1.91554825      -2.80926999
H       -2.08417457      -0.82613584      -1.61625857
H       -0.69374532       1.06480258      -2.48699108
H        0.01905742      -0.00326544      -3.71625000
H       -1.69894396       0.34156802      -3.73691132
47
Properties=species:S:1:pos:R:3 charge=1 spin=1 pbc="F F F"
C        2.82247276       1.09147134       2.96191858
N        2.13723755       1.33582596       1.70750134
C        2.90939493       2.08521600       0.73682570
C        0.86686650       0.95037676       1.52497257
C        0.05870334       1.11348497       0.44993397
C       -1.40847774       1.23014436       0.63882753
C       -2.06243975       2.31072046       0.02903582
C       -3.40491225       2.56437856       0.26727740
C       -4.12882710       1.74938223       1.12865890
C       -3.49237655       0.68416201       1.75572559
C       -2.14939468       0.42504790       1.50935216
H        3.71634732       0.48407448       2.80396526
H        3.13840895       2.03207051       3.42485311
H        2.17106224       0.57067667       3.66132068
H        2.27424543       2.48536764      -0.05151423
H        3.68808610       1.46063028       0.28576639
H        3.40437752       2.92802056       1.23165913
H        0.41052280       0.53947997       2.41841905
H        0.45379751       1.66105496      -0.40086010
H        0.01665706      -0.71685096      -0.59705923
H       -1.50321718       2.98749086      -0.61040126
H       -3.88512890       3.40958381      -0.21488523
H       -5.17678780       1.94292095       1.31811231
H       -4.04441921       0.04219494       2.43589135
H       -1.67194903      -0.40804157       2.02228983
C        2.41717491      -1.18108422      -1.36869842
C        1.16746743      -1.82519006      -1.92564868
N       -0.12761661      -1.45054024      -1.23549657
C       -0.64961396      -2.59331807      -0.39073959
C        0.29209577      -3.00835736       0.71986201
C       -1.19435218      -1.01901594      -2.20830107
C       -0.84376250       0.17229810      -3.07357898
H        3.27661069      -1.58312737      -1.91025018
H        2.55303896      -1.39765899      -0.30978860
H        2.40008204      -0.10266389      -1.51549309
H        1.21976769      -2.90979687      -1.86743106
H        1.04311793      -1.57609041      -2.97301111
H       -0.82341208      -3.40575915      -1.10171595
H       -1.61704144      -2.27504938       0.00502925
H        0.48939615      -2.18381707       1.41061715
H        1.24361482      -3.39612306       0.34436623
H       -0.18897031      -3.81304271       1.28307743
H       -1.37596443      -1.90544917      -2.81064504
H       -2.08215792      -0.81661070      -1.61376256
H       -0.68422129       1.07164347      -2.48107425
H        0.02119677       0.00324181      -3.71483243
H       -1.69569491       0.35547922      -3.73064938
47
Properties=species:S:1:pos:R:3 charge=1 spin=1 pbc="F F F"
C        2.82236977       1.09139111       2.96046713
N        2.13749044       1.33578616       1.70585925
C        2.90989970       2.08539201       0.73555863
C        0.86687988       0.95116270       1.52327418
C        0.05836233       1.11553766       0.44871956
C       -1.40876199       1.23169302       0.63817195
C       -2.06340457       2.31142542       0.02767359
C       -3.40586286       2.56485501       0.26625471
C       -4.12918735       1.75037914       1.12858016
C       -3.49206766       0.68603657       1.75644205
C       -2.14906033       0.42730970       1.50992282
H        3.71659498       0.48449643       2.80262058
H        3.13770190       2.03198998       3.42382513
H        2.17098167       0.57006291       3.65948850
H        2.27516192       2.48478209      -0.05346474
H        3.68929795       1.46107930       0.28538224
H        3.40398844       2.92871290       1.23040857
H        0.41067281       0.53960962       2.41647708
H        0.45299295       1.66424546      -0.40157010
H        0.01876839      -0.70972727      -0.60769790
H       -1.50469481       2.98779996      -0.61261211
H       -3.88653081       3.40948303      -0.21645245
H       -5.17715804       1.94367933       1.31820987
H       -4.04359576       0.04451828       2.43743346
H       -1.67112037      -0.40486136       2.02382147
C        2.41770419      -1.18708270      -1.37116080
C        1.16622292      -1.83029506      -1.92508090
N       -0.12714370      -1.45015067      -1.23535195
C       -0.64819852      -2.58427551      -0.38068807
C        0.29742742      -2.99997421       0.72599478
C       -1.19526694      -1.02675656      -2.20966498
C       -0.84807240       0.16356241      -3.07754683
H        3.27584363      -1.59194773      -1.91249177
H        2.55451393      -1.40082505      -0.31191785
H        2.40226471      -0.10914490      -1.52109900
H        1.21572249      -2.91470991      -1.86357868
H        1.04166626      -1.58402126      -2.97304935
H       -0.83079307      -3.39884212      -1.08539003
H       -1.61075120      -2.25840051       0.01840741
H        0.50375717      -2.17429941       1.41106654
H        1.24357191      -3.39540420       0.34740472
H       -0.18462753      -3.79872639       1.29551361
H       -1.37284857      -1.91554825      -2.80926999
H       -2.08417457      -0.82613584      -1.61625857
H       -0.69374532       1.06480258      -2.48699108
H        0.01905742      -0.00326544      -3.71625000
H       -1.69894396       0.34156802      -3.73691132
47
Properties=species:S:1:pos:R:3 charge=1 spin=1 pbc="F F F"
C        2.82226679       1.09131089       2.95901568
N        2.13774332       1.33574636       1.70421716
C        2.91040447       2.08556803       0.73429155
C        0.86689327       0.95194865       1.52157580
C        0.05802131       1.11759035       0.44750515
C       -1.40904624       1.23324168       0.63751637
C       -2.06436939       2.31213037       0.02631137
C       -3.40681347       2.56533146       0.26523202
C       -4.12954760       1.75137604       1.12850141
C       -3.49175876       0.68791114       1.75715852
C       -2.14872598       0.42957149       1.51049348
H        3.71684263       0.48491838       2.80127589
H        3.13699484       2.03190946       3.42279715
H        2.17090110       0.56944914       3.65765633
H        2.27607840       2.48419654      -0.05541525
H        3.69050980       1.46152831       0.28499810
H        3.40359936       2.92940524       1.22915801
H        0.41082282       0.53973927       2.41453512
H        0.45218840       1.66743596      -0.40228009
H        0.02087971      -0.70260358      -0.61833657
H       -1.50617245       2.98810906      -0.61482296
H       -3.88793272       3.40938225      -0.21801966
H       -5.17752828       1.94443770       1.31830743
H       -4.04277232       0.04684161       2.43897558
H       -1.67029172      -0.40168116       2.02535310
C        2.41823347      -1.19308118      -1.37362318
C        1.16497841      -1.83540006      -1.92451311
N       -0.12667078      -1.44976110      -1.23520734
C       -0.64678308      -2.57523296      -0.37063655
C        0.30275907      -2.99159107       0.73212755
C       -1.19618170      -1.03449718      -2.21102890
C       -0.85238230       0.15482671      -3.08151468
H        3.27507657      -1.60076808      -1.91473336
H        2.55598890      -1.40399112      -0.31404710
H        2.40444739      -0.11562590      -1.52670491
H        1.21167729      -2.91962295      -1.85972630
H        1.04021459      -1.59195211      -2.97308759
H       -0.83817405      -3.39192509      -1.06906411
H       -1.60446097      -2.24175163       0.03178557
H        0.51811819      -2.16478175       1.41151593
H        1.24352901      -3.39468533       0.35044322
H       -0.18028475      -3.78441007       1.30794980
H       -1.36973271      -1.92564732      -2.80789493
H       -2.08619121      -0.83566098      -1.61875458
H       -0.70326936       1.05796168      -2.49290790
H        0.01691807      -0.00977270      -3.71766757
H       -1.70219301       0.32765683      -3.74317326
47
Properties=species:S:1:pos:R:3 charge=1 spin=1 pbc="F F F"
C        2.82216380       1.09123066       2.95756424
N        2.13799621       1.33570656       1.70257508
C        2.91090923       2.08574405       0.73302448
C        0.86690665       0.95273459       1.51987742
C        0.05768029       1.11964303       0.44629074
C       -1.40933050       1.23479033       0.63686079
C       -2.06533421       2.31283532       0.02494914
C       -3.40776408       2.56580791       0.26420934
C       -4.12990786       1.75237295       1.12842266
C       -3.49144986       0.68978571       1.75787498
C       -2.14839163       0.43183328       1.51106413
H        3.71709029       0.48534033       2.79993121
H        3.13628779       2.03182894       3.42176917
H        2.17082053       0.56883538       3.65582415
H        2.27699489       2.48361098      -0.05736577
H        3.69172164       1.46197733       0.28461395
H        3.40321029       2.93009758       1.22790745
H        0.41097283       0.53986892       2.41259315
H        0.45138385       1.67062645      -0.40299009
H        0.02299103      -0.69547988      -0.62897524
H       -1.50765008       2.98841816      -0.61703381
H       -3.88933464       3.40928147      -0.21958688
H       -5.17789852       1.94519607       1.31840499
H       -4.04194887       0.04916495       2.44051769
H       -1.66946307      -0.39850096       2.02688474
C        2.41876275      -1.19907966      -1.37608556
C        1.16373390      -1.84050507      -1.92394532
N       -0.12619787      -1.44937154      -1.23506272
C       -0.64536764      -2.56619040      -0.36058502
C        0.30809071      -2.98320792       0.73826032
C       -1.19709646      -1.04223779      -2.21239282
C       -0.85669221       0.14609102      -3.08548252
H        3.27430950      -1.60958844      -1.91697495
H        2.55746386      -1.40715718      -0.31617634
H        2.40663006      -0.12210691      -1.53231081
H        1.20763210      -2.92453599      -1.85587393
H        1.03876292      -1.59988296      -2.97312583
H       -0.84555503      -3.38500805      -1.05273819
H       -1.59817073      -2.22510275       0.04516373
H        0.53247921      -2.15526410       1.41196532
H        1.24348610      -3.39396647       0.35348172
H       -0.17594197      -3.77009374       1.32038598
H       -1.36661685      -1.93574639      -2.80651988
H       -2.08820786      -0.84518612      -1.62125059
H       -0.71279339       1.05112079      -2.49882473
H        0.01477872      -0.01627995      -3.71908514
H       -1.70544206       0.31374563      -3.74943520
47
Properties=species:S:1:pos:R:3 charge=1 spin=1 pbc="F F F"
C        2.82206081       1.09115043       2.95611279
N        2.13824909       1.33566676       1.70093299
C        2.91141400       2.08592006       0.73175740
C        0.86692004       0.95352053       1.51817904
C        0.05733928       1.12169572       0.44507633
C       -1.40961475       1.23633899       0.63620521
C       -2.06629904       2.31354028       0.02358692
C       -3.40871469       2.56628436       0.26318665
C       -4.13026811       1.75336985       1.12834392
C       -3.49114096       0.69166028       1.75859145
C       -2.14805727       0.43409507       1.51163479
H        3.71733795       0.48576229       2.79858652
H        3.13558073       2.03174842       3.42074119
H        2.17073995       0.56822161       3.65399197
H        2.27791137       2.48302543      -0.05931628
H        3.69293349       1.46242634       0.28422980
H        3.40282121       2.93078992       1.22665689
H        0.41112283       0.53999857       2.41065118
H        0.45057929       1.67381695      -0.40370008
H        0.02510236      -0.68835619      -0.63961391
H       -1.50912772       2.98872726      -0.61924466
H       -3.89073655       3.40918068      -0.22115409
H       -5.17826876       1.94595444       1.31850255
H       -4.04112543       0.05148828       2.44205980
H       -1.66863442      -0.39532076       2.02841638
C        2.41929202      -1.20507813      -1.37854795
C        1.16248938      -1.84561007      -1.92337753
N       -0.12572496      -1.44898197      -1.23491811
C       -0.64395220      -2.55714784      -0.35053350
C        0.31342236      -2.97482478       0.74439309
C       -1.19801122      -1.04997841      -2.21375673
C       -0.86100211       0.13735533      -3.08945037
H        3.27354244      -1.61840879      -1.91921654
H        2.55893883      -1.41032324      -0.31830559
H        2.40881274      -0.12858791      -1.53791672
H        1.20358690      -2.92944903      -1.85202155
H        1.03731124      -1.60781381      -2.97316407
H       -0.85293601      -3.37809102      -1.03641228
H       -1.59188049      -2.20845388       0.05854188
H        0.54684023      -2.14574644       1.41241472
H        1.24344319      -3.39324760       0.35652022
H       -0.17159919      -3.75577742       1.33282217
H       -1.36350099      -1.94584547      -2.80514483
H       -2.09022450      -0.85471126      -1.62374660
H       -0.72231743       1.04427989      -2.50474155
H        0.01263938      -0.02278720      -3.72050271
H       -1.70869111       0.29983443      -3.75569713
47
Properties=species:S:1:pos:R:3 charge=1 spin=1 pbc="F F F"
C        2.82195782       1.09107021       2.95466134
N        2.13850198       1.33562696       1.69929090
C        2.91191877       2.08609608       0.73049032
C        0.86693342       0.95430648       1.51648065
C        0.05699826       1.12374841       0.44386192
C       -1.40989900       1.23788765       0.63554963
C       -2.06726386       2.31424523       0.02222469
C       -3.40966531       2.56676081       0.26216396
C       -4.13062836       1.75436675       1.12826517
C       -3.49083206       0.69353485       1.75930791
C       -2.14772292       0.43635686       1.51220545
H        3.71758560       0.48618424       2.79724184
H        3.13487368       2.03166790       3.41971321
H        2.17065938       0.56760785       3.65215980
H        2.27882786       2.48243988      -0.06126679
H        3.69414534       1.46287536       0.28384565
H        3.40243213       2.93148226       1.22540633
H        0.41127284       0.54012822       2.40870921
H        0.44977474       1.67700745      -0.40441008
H        0.02721368      -0.68123250      -0.65025259
H       -1.51060535       2.98903636      -0.62145551
H       -3.89213847       3.40907990      -0.22272131
H       -5.17863900       1.94671282       1.31860011
H       -4.04030198       0.05381162       2.44360192
H       -1.66780576      -0.39214055       2.02994801
C        2.41982130      -1.21107661      -1.38101033
C        1.16124487      -1.85071507      -1.92280974
N       -0.12525205      -1.44859240      -1.23477349
C       -0.64253676      -2.54810529      -0.34048198
C        0.31875400      -2.96644163       0.75052586
C       -1.19892598      -1.05771903      -2.21512065
C       -0.86531201       0.12861963      -3.09341822
H        3.27277538      -1.62722915      -1.92145813
H        2.56041380      -1.41348931      -0.32043483
H        2.41099541      -0.13506892      -1.54352263
H        1.19954170      -2.93436207      -1.84816917
H        1.03585957      -1.61574466      -2.97320231
H       -0.86031699      -3.37117399      -1.02008636
H       -1.58559026      -2.19180500       0.07192004
H        0.56120126      -2.13622878       1.41286411
H        1.24340029      -3.39252874       0.35955871
H       -0.16725641      -3.74146110       1.34525835
H       -1.36038513      -1.95594454      -2.80376978
H       -2.09224115      -0.86423640      -1.62624261
H       -0.73184146       1.03743900      -2.51065838
H        0.01050003      -0.02929445      -3.72192029
H       -1.71194016       0.28592324      -3.76195907
47
Properties=species:S:1:pos:R:3 charge=1 spin=1 pbc="F F F"
C        2.82185483       1.09098998       2.95320989
N        2.13875487       1.33558716       1.69764881
C        2.91242353       2.08627209       0.72922325
C        0.86694680       0.95509242       1.51478227
C        0.05665725       1.12580109       0.44264751
C       -1.41018326       1.23943631       0.63489405
C       -2.06822868       2.31495018       0.02086247
C       -3.41061592       2.56723726       0.26114127
C       -4.13098861       1.75536366       1.12818642
C       -3.49052316       0.69540942       1.76002438
C       -2.14738857       0.43861865       1.51277610
H        3.71783326       0.48660619       2.79589716
H        3.13416662       2.03158738       3.41868523
H        2.17057881       0.56699408       3.65032762
H        2.27974435       2.48185432      -0.06321730
H        3.69535719       1.46332438       0.28346150
H        3.40204306       2.93217460       1.22415576
H        0.41142285       0.54025786       2.40676724
H        0.44897019       1.68019795      -0.40512007
H        0.02932501      -0.67410880      -0.66089126
H       -1.51208299       2.98934546      -0.62366636
H       -3.89354038       3.40897912      -0.22428852
H       -5.17900924       1.94747119       1.31869766
H       -4.03947853       0.05613495       2.44514403
H       -1.66697711      -0.38896035       2.03147965
C        2.42035058      -1.21707509      -1.38347271
C        1.16000036      -1.85582008      -1.92224195
N       -0.12477914      -1.44820283      -1.23462888
C       -0.64112132      -2.53906273      -0.33043046
C        0.32408565      -2.95805849       0.75665863
C       -1.19984074      -1.06545965      -2.21648457
C       -0.86962191       0.11988394      -3.09738607
H        3.27200832      -1.63604950      -1.92369972
H        2.56188876      -1.41665537      -0.32256408
H        2.41317808      -0.14154993      -1.54912854
H        1.19549651      -2.93927511      -1.84431679
H        1.03440790      -1.62367551      -2.97324055
H       -0.86769797      -3.36425695      -1.00376044
H       -1.57930002      -2.17515612       0.08529820
H        0.57556228      -2.12671113       1.41331350
H        1.24335738      -3.39180988       0.36259721
H       -0.16291364      -3.72714477       1.35769454
H       -1.35726927      -1.96604362      -2.80239473
H       -2.09425779      -0.87376154      -1.62873862
H       -0.74136549       1.03059810      -2.51657520
H        0.00836068      -0.03580170      -3.72333786
H       -1.71518921       0.27201204      -3.76822101
47
Properties=species:S:1:pos:R:3 charge=1 spin=1 pbc="F F F"
C        2.82175184       1.09090975       2.95175844
N        2.13900775       1.33554736       1.69600672
C        2.91292830       2.08644811       0.72795617
C        0.86696019       0.95587837       1.51308389
C        0.05631623       1.12785378       0.44143310
C       -1.41046751       1.24098497       0.63423847
C       -2.06919350       2.31565514       0.01950024
C       -3.41156653       2.56771371       0.26011858
C       -4.13134886       1.75636056       1.12810768
C       -3.49021427       0.69728398       1.76074084
C       -2.14705422       0.44088045       1.51334676
H        3.71808092       0.48702814       2.79455247
H        3.13345957       2.03150685       3.41765725
H        2.17049824       0.56638032       3.64849545
H        2.28066083       2.48126877      -0.06516781
H        3.69656904       1.46377339       0.28307735
H        3.40165398       2.93286693       1.22290520
H        0.41157286       0.54038751       2.40482527
H        0.44816563       1.68338845      -0.40583007
H        0.03143633      -0.66698511      -0.67152993
H       -1.51356062       2.98965456      -0.62587721
H       -3.89494230       3.40887834      -0.22585574
H       -5.17937948       1.94822956       1.31879522
H       -4.03865509       0.05845829       2.44668615
H       -1.66614846      -0.38578015       2.03301129
C        2.42087986      -1.22307357      -1.38593509
C        1.15875585      -1.86092508      -1.92167417
N       -0.12430623      -1.44781326      -1.23448426
C       -0.63970588      -2.53002017      -0.32037894
C        0.32941729      -2.94967534       0.76279140
C       -1.20075550      -1.07320027      -2.21784848
C       -0.87393181       0.11114825      -3.10135392
H        3.27124126      -1.64486986      -1.92594131
H        2.56336373      -1.41982144      -0.32469332
H        2.41536076      -0.14803093      -1.55473445
H        1.19145131      -2.94418815      -1.84046441
H        1.03295623      -1.63160635      -2.97327879
H       -0.87507896      -3.35733992      -0.98743452
H       -1.57300979      -2.15850725       0.09867636
H        0.58992330      -2.11719347       1.41376289
H        1.24331448      -3.39109101       0.36563571
H       -0.15857086      -3.71282845       1.37013072
H       -1.35415341      -1.97614269      -2.80101968
H       -2.09627444      -0.88328668      -1.63123464
H       -0.75088953       1.02375721      -2.52249203
H        0.00622133      -0.04230895      -3.72475543
H       -1.71843826       0.25810084      -3.77448295
47
Properties=species:S:1:pos:R:3 charge=1 spin=1 pbc="F F F"
C        2.82164885       1.09082952       2.95030699
N        2.13926064       1.33550756       1.69436464
C        2.91343307       2.08662413       0.72668909
C        0.86697357       0.95666431       1.51138551
C        0.05597521       1.12990647       0.44021869
C       -1.41075176       1.24253362       0.63358289
C       -2.07015832       2.31636009       0.01813802
C       -3.41251714       2.56819016       0.25909590
C       -4.13170912       1.75735746       1.12802893
C       -3.48990537       0.69915855       1.76145731
C       -2.14671986       0.44314224       1.51391742
H        3.71832858       0.48745009       2.79320779
H        3.13275251       2.03142633       3.41662927
H        2.17041766       0.56576655       3.64666327
H        2.28157732       2.48068322      -0.06711833
H        3.69778088       1.46422241       0.28269321
H        3.40126490       2.93355927       1.22165464
H        0.41172287       0.54051716       2.40288331
H        0.44736108       1.68657894      -0.40654006
H        0.03354765      -0.65986142      -0.68216860
H       -1.51503826       2.98996366      -0.62808806
H       -3.89634421       3.40877755      -0.22742295
H       -5.17974972       1.94898793       1.31889278
H       -4.03783164       0.06078162       2.44822826
H       -1.66531981      -0.38259995       2.03454293
C        2.42140913      -1.22907205      -1.38839748
C        1.15751133      -1.86603008      -1.92110638
N       -0.12383331      -1.44742370      -1.23433965
C       -0.63829044      -2.52097761      -0.31032741
C        0.33474894      -2.94129220       0.76892417
C       -1.20167026      -1.08094088      -2.21921240
C       -0.87824171       0.10241256      -3.10532177
H        3.27047420      -1.65369021      -1.92818290
H        2.56483870      -1.42298750      -0.32682257
H        2.41754343      -0.15451194      -1.56034035
H        1.18740611      -2.94910119      -1.83661204
H        1.03150455      -1.63953720      -2.97331703
H       -0.88245994      -3.35042289      -0.97110861
H       -1.56671955      -2.14185837       0.11205451
H        0.60428432      -2.10767581       1.41421229
H        1.24327157      -3.39037215       0.36867421
H       -0.15422808      -3.69851213       1.38256691
H       -1.35103755      -1.98624176      -2.79964462
H       -2.09829108      -0.89281182      -1.63373065
H       -0.76041356       1.01691631      -2.52840885
H        0.00408199      -0.04881621      -3.72617300
H       -1.72168731       0.24418964      -3.78074488
47
Properties=species:S:1:pos:R:3 charge=1 spin=1 pbc="F F F"
C        2.82154586       1.09074930       2.94885554
N        2.13951352       1.33546776       1.69272255
C        2.91393783       2.08680014       0.72542202
C        0.86698696       0.95745026       1.50968712
C        0.05563420       1.13195915       0.43900428
C       -1.41103602       1.24408228       0.63292731
C       -2.07112314       2.31706505       0.01677579
C       -3.41346775       2.56866661       0.25807321
C       -4.13206937       1.75835437       1.12795019
C       -3.48959647       0.70103312       1.76217377
C       -2.14638551       0.44540403       1.51448807
H        3.71857623       0.48787204       2.79186310
H        3.13204546       2.03134581       3.41560129
H        2.17033709       0.56515279       3.64483110
H        2.28249380       2.48009766      -0.06906884
H        3.69899273       1.46467142       0.28230906
H        3.40087583       2.93425161       1.22040408
H        0.41187288       0.54064681       2.40094134
H        0.44655652       1.68976944      -0.40725006
H        0.03565898      -0.65273772      -0.69280727
H       -1.51651589       2.99027276      -0.63029891
H       -3.89774613       3.40867677      -0.22899017
H       -5.18011996       1.94974631       1.31899034
H       -4.03700820       0.06310496       2.44977038
H       -1.66449115      -0.37941974       2.03607456
C        2.42193841      -1.23507053      -1.39085986
C        1.15626682      -1.87113509      -1.92053859
N       -0.12336040      -1.44703413      -1.23419503
C       -0.63687500      -2.51193506      -0.30027589
C        0.34008058      -2.93290905       0.77505694
C       -1.20258502      -1.08868150      -2.22057631
C       -0.88255161       0.09367686      -3.10928962
H        3.26970714      -1.66251057      -1.93042449
H        2.56631366      -1.42615357      -0.32895181
H        2.41972611      -0.16099294      -1.56594626
H        1.18336092      -2.95401423      -1.83275966
H        1.03005288      -1.64746805      -2.97335527
H       -0.88984092      -3.34350585      -0.95478269
H       -1.56042932      -2.12520950       0.12543267
H        0.61864534      -2.09815816       1.41466168
H        1.24322867      -3.38965328       0.37171270
H       -0.14988530      -3.68419580       1.39500309
H       -1.34792169      -1.99634084      -2.79826957
H       -2.10030773      -0.90233696      -1.63622666
H       -0.76993760       1.01007542      -2.53432568
H        0.00194264      -0.05532346      -3.72759057
H       -1.72493636       0.23027845      -3.78700682
47
Properties=species:S:1:pos:R:3 charge=1 spin=1 pbc="F F F"
C        2.82144287       1.09066907       2.94740409
N        2.13976641       1.33542796       1.69108046
C        2.91444260       2.08697616       0.72415494
C        0.86700034       0.95823620       1.50798874
C        0.05529318       1.13401184       0.43778987
C       -1.41132027       1.24563094       0.63227173
C       -2.07208796       2.31777000       0.01541357
C       -3.41441836       2.56914306       0.25705052
C       -4.13242962       1.75935127       1.12787144
C       -3.48928757       0.70290769       1.76289024
C       -2.14605116       0.44766582       1.51505873
H        3.71882389       0.48829399       2.79051842
H        3.13133840       2.03126529       3.41457331
H        2.17025652       0.56453902       3.64299892
H        2.28341029       2.47951211      -0.07101935
H        3.70020458       1.46512044       0.28192491
H        3.40048675       2.93494395       1.21915352
H        0.41202289       0.54077646       2.39899937
H        0.44575197       1.69295994      -0.40796005
H        0.03777030      -0.64561403      -0.70344594
H       -1.51799353       2.99058186      -0.63250976
H       -3.89914804       3.40857599      -0.23055738
H       -5.18049020       1.95050468       1.31908790
H       -4.03618475       0.06542829       2.45131249
H       -1.66366250      -0.37623954       2.03760620
C        2.42246769      -1.24106901      -1.39332224
C        1.15502231      -1.87624009      -1.91997080
N       -0.12288749      -1.44664456      -1.23405042
C       -0.63545956      -2.50289250      -0.29022437
C        0.34541223      -2.92452591       0.78118971
C       -1.20349978      -1.09642212      -2.22194023
C       -0.88686151       0.08494117      -3.11325747
H        3.26894008      -1.67133092      -1.93266608
H        2.56778863      -1.42931963      -0.33108106
H        2.42190878      -0.16747395      -1.57155217
H        1.17931572      -2.95892727      -1.82890728
H        1.02860121      -1.65539890      -2.97339351
H       -0.89722190      -3.33658882      -0.93845677
H       -1.55413908      -2.10856062       0.13881083
H        0.63300636      -2.08864050       1.41511107
H        1.24318576      -3.38893442       0.37475120
H       -0.14554252      -3.66987948       1.40743928
H       -1.34480583      -2.00643991      -2.79689452
H       -2.10232437      -0.91186210      -1.63872267
H       -0.77946163       1.00323452      -2.54024250
H       -0.00019671      -0.06183071      -3.72900814
H       -1.72818541       0.21636725      -3.79326876
47
Properties=species:S:1:pos:R:3 charge=1 spin=1 pbc="F F F"
C        2.82133988       1.09058884       2.94595264
N        2.14001930       1.33538816       1.68943837
C        2.91494737       2.08715218       0.72288786
C        0.86701372       0.95902214       1.50629036
C        0.05495216       1.13606453       0.43657546
C       -1.41160452       1.24717960       0.63161615
C       -2.07305278       2.31847495       0.01405135
C       -3.41536897       2.56961951       0.25602783
C       -4.13278987       1.76034817       1.12779269
C       -3.48897867       0.70478226       1.76360671
C       -2.14571681       0.44992761       1.51562939
H        3.71907155       0.48871594       2.78917374
H        3.13063134       2.03118477       3.41354533
H        2.17017595       0.56392525       3.64116674
H        2.28432678       2.47892656      -0.07296986
H        3.70141643       1.46556946       0.28154076
H        3.40009767       2.93563629       1.21790296
H        0.41217290       0.54090611       2.39705740
H        0.44494742       1.69615044      -0.40867004
H        0.03988162      -0.63849034      -0.71408461
H       -1.51947117       2.99089096      -0.63472061
H       -3.90054995       3.40847521      -0.23212459
H       -5.18086044       1.95126305       1.31918546
H       -4.03536130       0.06775162       2.45285460
H       -1.66283385      -0.37305934       2.03913784
C        2.42299697      -1.24706749      -1.39578462
C        1.15377780      -1.88134509      -1.91940301
N       -0.12241458      -1.44625499      -1.23390581
C       -0.63404412      -2.49384994      -0.28017285
C        0.35074388      -2.91614277       0.78732248
C       -1.20441454      -1.10416274      -2.22330415
C       -0.89117141       0.07620548      -3.11722532
H        3.26817302      -1.68015127      -1.93490767
H        2.56926360      -1.43248569      -0.33321031
H        2.42409145      -0.17395496      -1.57715808
H        1.17527052      -2.96384031      -1.82505490
H        1.02714954      -1.66332975      -2.97343175
H       -0.90460288      -3.32967179      -0.92213085
H       -1.54784884      -2.09191174       0.15218899
H        0.64736738      -2.07912284       1.41556046
H        1.24314285      -3.38821556       0.37778970
H       -0.14119974      -3.65556316       1.41987547
H       -1.34168997      -2.01653898      -2.79551947
H       -2.10434101      -0.92138724      -1.64121868
H       -0.78898566       0.99639362      -2.54615932
H       -0.00233606      -0.06833796      -3.73042571
H       -1.73143446       0.20245605      -3.79953070
47
Properties=species:S:1:pos:R:3 charge=1 spin=1 pbc="F F F"
C        2.82123689       1.09050862       2.94450119
N        2.14027218       1.33534836       1.68779628
C        2.91545213       2.08732819       0.72162079
C        0.86702711       0.95980809       1.50459197
C        0.05461115       1.13811721       0.43536105
C       -1.41188878       1.24872826       0.63096057
C       -2.07401760       2.31917991       0.01268912
C       -3.41631958       2.57009596       0.25500514
C       -4.13315012       1.76134508       1.12771395
C       -3.48866977       0.70665683       1.76432317
C       -2.14538246       0.45218940       1.51620004
H        3.71931920       0.48913789       2.78782905
H        3.12992429       2.03110425       3.41251735
H        2.17009538       0.56331149       3.63933457
H        2.28524326       2.47834100      -0.07492037
H        3.70262828       1.46601847       0.28115661
H        3.39970860       2.93632863       1.21665240
H        0.41232291       0.54103576       2.39511543
H        0.44414286       1.69934094      -0.40938004
H        0.04199295      -0.63136664      -0.72472328
H       -1.52094880       2.99120006      -0.63693146
H       -3.90195187       3.40837443      -0.23369181
H       -5.18123068       1.95202143       1.31928302
H       -4.03453786       0.07007496       2.45439672
H       -1.66200519      -0.36987913       2.04066947
C        2.42352625      -1.25306597      -1.39824700
C        1.15253329      -1.88645010      -1.91883522
N       -0.12194167      -1.44586542      -1.23376119
C       -0.63262868      -2.48480739      -0.27012133
C        0.35607552      -2.90775962       0.79345525
C       -1.20532930      -1.11190336      -2.22466806
C       -0.89548131       0.06746978      -3.12119317
H        3.26740596      -1.68897163      -1.93714926
H        2.57073856      -1.43565176      -0.33533955
H        2.42627413      -0.18043596      -1.58276399
H        1.17122533      -2.96875335      -1.82120252
H        1.02569787      -1.67126060      -2.97346999
H       -0.91198386      -3.32275475      -0.90580493
H       -1.54155861      -2.07526287       0.16556715
H        0.66172840      -2.06960519       1.41600985
H        1.24309995      -3.38749669       0.38082819
H       -0.13685696      -3.64124683       1.43231165
H       -1.33857411      -2.02663806      -2.79414442
H       -2.10635766      -0.93091238      -1.64371469
H       -0.79850970       0.98955273      -2.55207615
H       -0.00447541      -0.07484521      -3.73184328
H       -1.73468351       0.18854486      -3.80579264
47
Properties=species:S:1:pos:R:3 charge=1 spin=1 pbc="F F F"
C        2.82113390       1.09042839       2.94304974
N        2.14052507       1.33530856       1.68615420
C        2.91595690       2.08750421       0.72035371
C        0.86704049       0.96059403       1.50289359
C        0.05427013       1.14016990       0.43414664
C       -1.41217303       1.25027691       0.63030499
C       -2.07498242       2.31988486       0.01132690
C       -3.41727019       2.57057241       0.25398246
C       -4.13351038       1.76234198       1.12763520
C       -3.48836087       0.70853140       1.76503964
C       -2.14504810       0.45445119       1.51677070
H        3.71956686       0.48955984       2.78648437
H        3.12921723       2.03102373       3.41148937
H        2.17001480       0.56269772       3.63750239
H        2.28615975       2.47775545      -0.07687089
H        3.70384012       1.46646749       0.28077247
H        3.39931952       2.93702097       1.21540184
H        0.41247292       0.54116541       2.39317347
H        0.44333831       1.70253143      -0.41009003
H        0.04410427      -0.62424295      -0.73536195
H       -1.52242644       2.99150916      -0.63914231
H       -3.90335378       3.40827364      -0.23525902
H       -5.18160092       1.95277980       1.31938058
H       -4.03371441       0.07239829       2.45593883
H       -1.66117654      -0.36669893       2.04220111
C        2.42405552      -1.25906445      -1.40070939
C        1.15128877      -1.89155510      -1.91826743
N       -0.12146875      -1.44547586      -1.23361658
C       -0.63121324      -2.47576483      -0.26006980
C        0.36140717      -2.89937648       0.79958802
C       -1.20624406      -1.11964397      -2.22603198
C       -0.89979121       0.05873409      -3.12516102
H        3.26663890      -1.69779198      -1.93939085
H        2.57221353      -1.43881782      -0.33746880
H        2.42845680      -0.18691697      -1.58836989
H        1.16718013      -2.97366639      -1.81735015
H        1.02424619      -1.67919145      -2.97350823
H       -0.91936484      -3.31583772      -0.88947902
H       -1.53526837      -2.05861399       0.17894530
H        0.67608942      -2.06008753       1.41645925
H        1.24305704      -3.38677783       0.38386669
H       -0.13251418      -3.62693051       1.44474784
H       -1.33545825      -2.03673713      -2.79276936
H       -2.10837430      -0.94043752      -1.64621070
H       -0.80803373       0.98271183      -2.55799297
H       -0.00661475      -0.08135247      -3.73326085
H       -1.73793256       0.17463366      -3.81205457
47
Properties=species:S:1:pos:R:3 charge=1 spin=1 pbc="F F F"
C        2.82103091       1.09034816       2.94159829
N        2.14077795       1.33526876       1.68451211
C        2.91646167       2.08768023       0.71908663
C        0.86705388       0.96137998       1.50119521
C        0.05392911       1.14222259       0.43293223
C       -1.41245728       1.25182557       0.62964941
C       -2.07594724       2.32058982       0.00996467
C       -3.41822080       2.57104886       0.25295977
C       -4.13387063       1.76333888       1.12755646
C       -3.48805198       0.71040596       1.76575610
C       -2.14471375       0.45671299       1.51734136
H        3.71981452       0.48998179       2.78513968
H        3.12851018       2.03094320       3.41046139
H        2.16993423       0.56208396       3.63567022
H        2.28707623       2.47716990      -0.07882140
H        3.70505197       1.46691650       0.28038832
H        3.39893044       2.93771330       1.21415128
H        0.41262293       0.54129506       2.39123150
H        0.44253375       1.70572193      -0.41080003
H        0.04621559      -0.61711926      -0.74600062
H       -1.52390407       2.99181826      -0.64135316
H       -3.90475570       3.40817286      -0.23682624
H       -5.18197116       1.95353817       1.31947814
H       -4.03289097       0.07472163       2.45748095
H       -1.66034789      -0.36351873       2.04373275
C        2.42458480      -1.26506293      -1.40317177
C        1.15004426      -1.89666010      -1.91769965
N       -0.12099584      -1.44508629      -1.23347196
C       -0.62979780      -2.46672227      -0.25001828
C        0.36673881      -2.89099333       0.80572079
C       -1.20715882      -1.12738459      -2.22739589
C       -0.90410111       0.04999840      -3.12912887
H        3.26587184      -1.70661234      -1.94163244
H        2.57368850      -1.44198389      -0.33959804
H        2.43063948      -0.19339797      -1.59397580
H        1.16313493      -2.97857943      -1.81349777
H        1.02279452      -1.68712229      -2.97354647
H       -0.92674583      -3.30892069      -0.87315310
H       -1.52897814      -2.04196512       0.19232346
H        0.69045044      -2.05056987       1.41690864
H        1.24301414      -3.38605896       0.38690519
H       -0.12817140      -3.61261419       1.45718402
H       -1.33234239      -2.04683620      -2.79139431
H       -2.11039095      -0.94996266      -1.64870672
H       -0.81755777       0.97587094      -2.56390980
H       -0.00875410      -0.08785972      -3.73467842
H       -1.74118161       0.16072246      -3.81831651
47
Properties=species:S:1:pos:R:3 charge=1 spin=1 pbc="F F F"
C        2.82092792       1.09026793       2.94014684
N        2.14103084       1.33522896       1.68287002
C        2.91696643       2.08785624       0.71781956
C        0.86706726       0.96216592       1.49949683
C        0.05358810       1.14427527       0.43171782
C       -1.41274154       1.25337423       0.62899383
C       -2.07691206       2.32129477       0.00860245
C       -3.41917141       2.57152531       0.25193708
C       -4.13423088       1.76433579       1.12747771
C       -3.48774308       0.71228053       1.76647257
C       -2.14437940       0.45897478       1.51791201
H        3.72006218       0.49040374       2.78379500
H        3.12780312       2.03086268       3.40943341
H        2.16985366       0.56147019       3.63383804
H        2.28799272       2.47658434      -0.08077191
H        3.70626382       1.46736552       0.28000417
H        3.39854137       2.93840564       1.21290071
H        0.41277294       0.54142470       2.38928953
H        0.44172920       1.70891243      -0.41151002
H        0.04832692      -0.60999556      -0.75663929
H       -1.52538171       2.99212736      -0.64356401
H       -3.90615761       3.40807208      -0.23839345
H       -5.18234140       1.95429654       1.31957569
H       -4.03206752       0.07704496       2.45902306
H       -1.65951924      -0.36033853       2.04526439
C        2.42511408      -1.27106141      -1.40563415
C        1.14879975      -1.90176511      -1.91713186
N       -0.12052293      -1.44469672      -1.23332735
C       -0.62838236      -2.45767971      -0.23996676
C        0.37207046      -2.88261019       0.81185356
C       -1.20807358      -1.13512521      -2.22875981
C       -0.90841101       0.04126271      -3.13309672
H        3.26510478      -1.71543269      -1.94387403
H        2.57516346      -1.44514995      -0.34172729
H        2.43282215      -0.19987898      -1.59958171
H        1.15908974      -2.98349247      -1.80964539
H        1.02134285      -1.69505314      -2.97358471
H       -0.93412681      -3.30200365      -0.85682718
H       -1.52268790      -2.02531624       0.20570162
H        0.70481146      -2.04105222       1.41735803
H        1.24297123      -3.38534010       0.38994369
H       -0.12382863      -3.59829786       1.46962021
H       -1.32922653      -2.05693528      -2.79001926
H       -2.11240759      -0.95948780      -1.65120273
H       -0.82708180       0.96903004      -2.56982662
H       -0.01089345      -0.09436697      -3.73609599
H       -1.74443066       0.14681126      -3.82457845
47
Properties=species:S:1:pos:R:3 charge=1 spin=1 pbc="F F F"
C        2.82082493       1.09018771       2.93869539
N        2.14128373       1.33518916       1.68122793
C        2.91747120       2.08803226       0.71655248
C        0.86708064       0.96295187       1.49779844
C        0.05324708       1.14632796       0.43050341
C       -1.41302579       1.25492289       0.62833825
C       -2.07787688       2.32199972       0.00724022
C       -3.42012203       2.57200176       0.25091439
C       -4.13459113       1.76533269       1.12739896
C       -3.48743418       0.71415510       1.76718903
C       -2.14404505       0.46123657       1.51848267
H        3.72030983       0.49082569       2.78245032
H        3.12709607       2.03078216       3.40840543
H        2.16977309       0.56085643       3.63200587
H        2.28890921       2.47599879      -0.08272242
H        3.70747567       1.46781454       0.27962002
H        3.39815229       2.93909798       1.21165015
H        0.41292295       0.54155435       2.38734756
H        0.44092465       1.71210293      -0.41222002
H        0.05043824      -0.60287187      -0.76727797
H       -1.52685934       2.99243646      -0.64577486
H       -3.90755953       3.40797130      -0.23996067
H       -5.18271164       1.95505492       1.31967325
H       -4.03124407       0.07936830       2.46056518
H       -1.65869058      -0.35715832       2.04679602
C        2.42564336      -1.27705989      -1.40809653
C        1.14755524      -1.90687011      -1.91656407
N       -0.12005002      -1.44430715      -1.23318273
C       -0.62696692      -2.44863716      -0.22991524
C        0.37740210      -2.87422704       0.81798633
C       -1.20898834      -1.14286583      -2.23012373
C       -0.91272091       0.03252701      -3.13706457
H        3.26433772      -1.72425305      -1.94611562
H        2.57663843      -1.44831602      -0.34385653
H        2.43500482      -0.20635999      -1.60518762
H        1.15504454      -2.98840551      -1.80579301
H        1.01989118      -1.70298399      -2.97362295
H       -0.94150779      -3.29508662      -0.84050126
H       -1.51639767      -2.00866736       0.21907978
H        0.71917249      -2.03153456       1.41780742
H        1.24292833      -3.38462124       0.39298218
H       -0.11948585      -3.58398154       1.48205639
H       -1.32611067      -2.06703435      -2.78864421
H       -2.11442424      -0.96901294      -1.65369874
H       -0.83660583       0.96218915      -2.57574345
H       -0.01303280      -0.10087422      -3.73751357
H       -1.74767971       0.13290007      -3.83084039
47
Properties=species:S:1:pos:R:3 charge=1 spin=1 pbc="F F F"
C        2.82072194       1.09010748       2.93724394
N        2.14153661       1.33514936       1.67958584
C        2.91797597       2.08820827       0.71528540
C        0.86709403       0.96373781       1.49610006
C        0.05290607       1.14838065       0.42928900
C       -1.41331004       1.25647155       0.62768267
C       -2.07884171       2.32270468       0.00587800
C       -3.42107264       2.57247821       0.24989170
C       -4.13495138       1.76632959       1.12732022
C       -3.48712528       0.71602967       1.76790550
C       -2.14371069       0.46349836       1.51905333
H        3.72055749       0.49124765       2.78110563
H        3.12638901       2.03070164       3.40737745
H        2.16969251       0.56024266       3.63017369
H        2.28982569       2.47541324      -0.08467293
H        3.70868752       1.46826355       0.27923587
H        3.39776321       2.93979032       1.21039959
H        0.41307295       0.54168400       2.38540559
H        0.44012009       1.71529343      -0.41293001
H        0.05254957      -0.59574818      -0.77791664
H       -1.52833698       2.99274556      -0.64798571
H       -3.90896144       3.40787051      -0.24152788
H       -5.18308188       1.95581329       1.31977081
H       -4.03042063       0.08169163       2.46210729
H       -1.65786193      -0.35397812       2.04832766
C        2.42617263      -1.28305836      -1.41055892
C        1.14631072      -1.91197511      -1.91599628
N       -0.11957711      -1.44391758      -1.23303812
C       -0.62555148      -2.43959460      -0.21986372
C        0.38273375      -2.86584390       0.82411910
C       -1.20990310      -1.15060645      -2.23148764
C       -0.91703081       0.02379132      -3.14103242
H        3.26357066      -1.73307340      -1.94835721
H        2.57811340      -1.45148208      -0.34598578
H        2.43718750      -0.21284099      -1.61079353
H        1.15099934      -2.99331855      -1.80194063
H        1.01843950      -1.71091484      -2.97366119
H       -0.94888877      -3.28816959      -0.82417535
H       -1.51010743      -1.99201849       0.23245793
H        0.73353351      -2.02201690       1.41825682
H        1.24288542      -3.38390237       0.39602068
H       -0.11514307      -3.56966522       1.49449258
H       -1.32299481      -2.07713343      -2.78726916
H       -2.11644088      -0.97853808      -1.65619475
H       -0.84612987       0.95534825      -2.58166027
H       -0.01517214      -0.10738147      -3.73893114
H       -1.75092876       0.11898887      -3.83710232
47
Properties=species:S:1:pos:R:3 charge=1 spin=1 pbc="F F F"
C        2.82061895       1.09002725       2.93579250
N        2.14178950       1.33510956       1.67794376
C        2.91848073       2.08838429       0.71401833
C        0.86710741       0.96452375       1.49440168
C        0.05256505       1.15043333       0.42807459
C       -1.41359430       1.25802020       0.62702709
C       -2.07980653       2.32340963       0.00451577
C       -3.42202325       2.57295466       0.24886902
C       -4.13531164       1.76732650       1.12724147
C       -3.48681638       0.71790424       1.76862196
C       -2.14337634       0.46576015       1.51962398
H        3.72080515       0.49166960       2.77976095
H        3.12568196       2.03062112       3.40634947
H        2.16961194       0.55962890       3.62834151
H        2.29074218       2.47482768      -0.08662345
H        3.70989936       1.46871257       0.27885172
H        3.39737414       2.94048266       1.20914903
H        0.41322296       0.54181365       2.38346362
H        0.43931554       1.71848392      -0.41364001
H        0.05466089      -0.58862448      -0.78855531
H       -1.52981461       2.99305466      -0.65019656
H       -3.91036336       3.40776973      -0.24309510
H       -5.18345212       1.95657166       1.31986837
H       -4.02959718       0.08401497       2.46364940
H       -1.65703328      -0.35079792       2.04985930
C        2.42670191      -1.28905684      -1.41302130
C        1.14506621      -1.91708012      -1.91542849
N       -0.11910420      -1.44352802      -1.23289350
C       -0.62413604      -2.43055204      -0.20981219
C        0.38806539      -2.85746075       0.83025187
C       -1.21081786      -1.15834706      -2.23285156
C       -0.92134072       0.01505563      -3.14500026
H        3.26280359      -1.74189376      -1.95059880
H        2.57958836      -1.45464814      -0.34811502
H        2.43937017      -0.21932200      -1.61639943
H        1.14695415      -2.99823159      -1.79808826
H        1.01698783      -1.71884569      -2.97369943
H       -0.95626975      -3.28125255      -0.80784943
H       -1.50381719      -1.97536961       0.24583609
H        0.74789453      -2.01249925       1.41870621
H        1.24284251      -3.38318351       0.39905918
H       -0.11080029      -3.55534889       1.50692876
H       -1.31987895      -2.08723250      -2.78589411
H       -2.11845753      -0.98806322      -1.65869076
H       -0.85565390       0.94850736      -2.58757710
H       -0.01731149      -0.11388872      -3.74034871
H       -1.75417781       0.10507767      -3.84336426
47
Properties=species:S:1:pos:R:3 charge=1 spin=1 pbc="F F F"
C        2.82051597       1.08994703       2.93434105
N        2.14204238       1.33506976       1.67630167
C        2.91898550       2.08856031       0.71275125
C        0.86712080       0.96530970       1.49270330
C        0.05222403       1.15248602       0.42686018
C       -1.41387855       1.25956886       0.62637151
C       -2.08077135       2.32411458       0.00315355
C       -3.42297386       2.57343111       0.24784633
C       -4.13567189       1.76832340       1.12716272
C       -3.48650748       0.71977881       1.76933843
C       -2.14304199       0.46802194       1.52019464
H        3.72105280       0.49209155       2.77841626
H        3.12497490       2.03054060       3.40532149
H        2.16953137       0.55901513       3.62650934
H        2.29165866       2.47424213      -0.08857396
H        3.71111121       1.46916158       0.27846758
H        3.39698506       2.94117500       1.20789847
H        0.41337297       0.54194330       2.38152166
H        0.43851099       1.72167442      -0.41435000
H        0.05677221      -0.58150079      -0.79919398
H       -1.53129225       2.99336376      -0.65240741
H       -3.91176527       3.40766895      -0.24466231
H       -5.18382236       1.95733003       1.31996593
H       -4.02877374       0.08633830       2.46519152
H       -1.65620463      -0.34761772       2.05139093
C        2.42723119      -1.29505532      -1.41548368
C        1.14382170      -1.92218512      -1.91486070
N       -0.11863128      -1.44313845      -1.23274889
C       -0.62272060      -2.42150949      -0.19976067
C        0.39339704      -2.84907761       0.83638464
C       -1.21173262      -1.16608768      -2.23421548
C       -0.92565062       0.00631993      -3.14896811
H        3.26203653      -1.75071411      -1.95284039
H        2.58106333      -1.45781421      -0.35024427
H        2.44155285      -0.22580300      -1.62200534
H        1.14290895      -3.00314463      -1.79423588
H        1.01553616      -1.72677654      -2.97373767
H       -0.96365073      -3.27433552      -0.79152351
H       -1.49752696      -1.95872073       0.25921425
H        0.76225555      -2.00298159       1.41915560
H        1.24279961      -3.38246464       0.40209768
H       -0.10645751      -3.54103257       1.51936495
H       -1.31676309      -2.09733157      -2.78451905
H       -2.12047417      -0.99758836      -1.66118677
H       -0.86517794       0.94166646      -2.59349392
H       -0.01945084      -0.12039598      -3.74176628
H       -1.75742686       0.09116648      -3.84962620
47
Properties=species:S:1:pos:R:3 charge=1 spin=1 pbc="F F F"
C        2.82041298       1.08986680       2.93288960
N        2.14229527       1.33502996       1.67465958
C        2.91949027       2.08873632       0.71148418
C        0.86713418       0.96609564       1.49100491
C        0.05188302       1.15453871       0.42564577
C       -1.41416280       1.26111752       0.62571593
C       -2.08173617       2.32481954       0.00179132
C       -3.42392447       2.57390756       0.24682364
C       -4.13603214       1.76932031       1.12708398
C       -3.48619859       0.72165337       1.77005489
C       -2.14270764       0.47028374       1.52076530
H        3.72130046       0.49251350       2.77707158
H        3.12426785       2.03046007       3.40429351
H        2.16945080       0.55840137       3.62467716
H        2.29257515       2.47365658      -0.09052447
H        3.71232306       1.46961060       0.27808343
H        3.39659598       2.94186734       1.20664791
H        0.41352298       0.54207295       2.37957969
H        0.43770643       1.72486492      -0.41506000
H        0.05888354      -0.57437710      -0.80983265
H       -1.53276988       2.99367286      -0.65461826
H       -3.91316718       3.40756817      -0.24622953
H       -5.18419260       1.95808841       1.32006349
H       -4.02795029       0.08866164       2.46673363
H       -1.65537597      -0.34443751       2.05292257
C        2.42776047      -1.30105380      -1.41794606
C        1.14257719      -1.92729012      -1.91429292
N       -0.11815837      -1.44274888      -1.23260427
C       -0.62130516      -2.41246693      -0.18970915
C        0.39872869      -2.84069446       0.84251741
C       -1.21264738      -1.17382830      -2.23557939
C       -0.92996052      -0.00241576      -3.15293596
H        3.26126947      -1.75953447      -1.95508198
H        2.58253830      -1.46098027      -0.35237352
H        2.44373552      -0.23228401      -1.62761125
H        1.13886375      -3.00805767      -1.79038350
H        1.01408449      -1.73470739      -2.97377591
H       -0.97103172      -3.26741849      -0.77519759
H       -1.49123672      -1.94207186       0.27259241
H        0.77661657      -1.99346393       1.41960499
H        1.24275670      -3.38174578       0.40513617
H       -0.10211473      -3.52671625       1.53180113
H       -1.31364723      -2.10743065      -2.78314400
H       -2.12249082      -1.00711350      -1.66368278
H       -0.87470197       0.93482557      -2.59941075
H       -0.02159019      -0.12690323      -3.74318385
H       -1.76067591       0.07725528      -3.85588814
47
Properties=species:S:1:pos:R:3 charge=1 spin=1 pbc="F F F"
C        2.82051597       1.08994703       2.93434105
N        2.14204238       1.33506976       1.67630167
C        2.91898550       2.08856031       0.71275125
C        0.86712080       0.96530970       1.49270330
C        0.05222403       1.15248602       0.42686018
C       -1.41387855       1.25956886       0.62637151
C       -2.08077135       2.32411458       0.00315355
C       -3.42297386       2.57343111       0.24784633
C       -4.13567189       1.76832340       1.12716272
C       -3.48650748       0.71977881       1.76933843
C       -2.14304199       0.46802194       1.52019464
H        3.72105280       0.49209155       2.77841626
H        3.12497490       2.03054060       3.40532149
H        2.16953137       0.55901513       3.62650934
H        2.29165866       2.47424213      -0.08857396
H        3.71111121       1.46916158       0.27846758
H        3.39698506       2.94117500       1.20789847
H        0.41337297       0.54194330       2.38152166
H        0.43851099       1.72167442      -0.41435000
H        0.05677221      -0.58150079      -0.79919398
H       -1.53129225       2.99336376      -0.65240741
H       -3.91176527       3.40766895      -0.24466231
H       -5.18382236       1.95733003       1.31996593
H       -4.02877374       0.08633830       2.46519152
H       -1.65620463      -0.34761772       2.05139093
C        2.42723119      -1.29505532      -1.41548368
C        1.14382170      -1.92218512      -1.91486070
N       -0.11863128      -1.44313845      -1.23274889
C       -0.62272060      -2.42150949      -0.19976067
C        0.39339704      -2.84907761       0.83638464
C       -1.21173262      -1.16608768      -2.23421548
C       -0.92565062       0.00631993      -3.14896811
H        3.26203653      -1.75071411      -1.95284039
H        2.58106333      -1.45781421      -0.35024427
H        2.44155285      -0.22580300      -1.62200534
H        1.14290895      -3.00314463      -1.79423588
H        1.01553616      -1.72677654      -2.97373767
H       -0.96365073      -3.27433552      -0.79152351
H       -1.49752696      -1.95872073       0.25921425
H        0.76225555      -2.00298159       1.41915560
H        1.24279961      -3.38246464       0.40209768
H       -0.10645751      -3.54103257       1.51936495
H       -1.31676309      -2.09733157      -2.78451905
H       -2.12047417      -0.99758836      -1.66118677
H       -0.86517794       0.94166646      -2.59349392
H       -0.01945084      -0.12039598      -3.74176628
H       -1.75742686       0.09116648      -3.84962620
47
Properties=species:S:1:pos:R:3 charge=1 spin=1 pbc="F F F"
C        2.82061895       1.09002725       2.93579250
N        2.14178950       1.33510956       1.67794376
C        2.91848073       2.08838429       0.71401833
C        0.86710741       0.96452375       1.49440168
C        0.05256505       1.15043333       0.42807459
C       -1.41359430       1.25802020       0.62702709
C       -2.07980653       2.32340963       0.00451577
C       -3.42202325       2.57295466       0.24886902
C       -4.13531164       1.76732650       1.12724147
C       -3.48681638       0.71790424       1.76862196
C       -2.14337634       0.46576015       1.51962398
H        3.72080515       0.49166960       2.77976095
H        3.12568196       2.03062112       3.40634947
H        2.16961194       0.55962890       3.62834151
H        2.29074218       2.47482768      -0.08662345
H        3.70989936       1.46871257       0.27885172
H        3.39737414       2.94048266       1.20914903
H        0.41322296       0.54181365       2.38346362
H        0.43931554       1.71848392      -0.41364001
H        0.05466089      -0.58862448      -0.78855531
H       -1.52981461       2.99305466      -0.65019656
H       -3.91036336       3.40776973      -0.24309510
H       -5.18345212       1.95657166       1.31986837
H       -4.02959718       0.08401497       2.46364940
H       -1.65703328      -0.35079792       2.04985930
C        2.42670191      -1.28905684      -1.41302130
C        1.14506621      -1.91708012      -1.91542849
N       -0.11910420      -1.44352802      -1.23289350
C       -0.62413604      -2.43055204      -0.20981219
C        0.38806539      -2.85746075       0.83025187
C       -1.21081786      -1.15834706      -2.23285156
C       -0.92134072       0.01505563      -3.14500026
H        3.26280359      -1.74189376      -1.95059880
H        2.57958836      -1.45464814      -0.34811502
H        2.43937017      -0.21932200      -1.61639943
H        1.14695415      -2.99823159      -1.79808826
H        1.01698783      -1.71884569      -2.97369943
H       -0.95626975      -3.28125255      -0.80784943
H       -1.50381719      -1.97536961       0.24583609
H        0.74789453      -2.01249925       1.41870621
H        1.24284251      -3.38318351       0.39905918
H       -0.11080029      -3.55534889       1.50692876
H       -1.31987895      -2.08723250      -2.78589411
H       -2.11845753      -0.98806322      -1.65869076
H       -0.85565390       0.94850736      -2.58757710
H       -0.01731149      -0.11388872      -3.74034871
H       -1.75417781       0.10507767      -3.84336426
47
Properties=species:S:1:pos:R:3 charge=1 spin=1 pbc="F F F"
C        2.82072194       1.09010748       2.93724394
N        2.14153661       1.33514936       1.67958584
C        2.91797597       2.08820827       0.71528540
C        0.86709403       0.96373781       1.49610006
C        0.05290607       1.14838065       0.42928900
C       -1.41331004       1.25647155       0.62768267
C       -2.07884171       2.32270468       0.00587800
C       -3.42107264       2.57247821       0.24989170
C       -4.13495138       1.76632959       1.12732022
C       -3.48712528       0.71602967       1.76790550
C       -2.14371069       0.46349836       1.51905333
H        3.72055749       0.49124765       2.78110563
H        3.12638901       2.03070164       3.40737745
H        2.16969251       0.56024266       3.63017369
H        2.28982569       2.47541324      -0.08467293
H        3.70868752       1.46826355       0.27923587
H        3.39776321       2.93979032       1.21039959
H        0.41307295       0.54168400       2.38540559
H        0.44012009       1.71529343      -0.41293001
H        0.05254957      -0.59574818      -0.77791664
H       -1.52833698       2.99274556      -0.64798571
H       -3.90896144       3.40787051      -0.24152788
H       -5.18308188       1.95581329       1.31977081
H       -4.03042063       0.08169163       2.46210729
H       -1.65786193      -0.35397812       2.04832766
C        2.42617263      -1.28305836      -1.41055892
C        1.14631072      -1.91197511      -1.91599628
N       -0.11957711      -1.44391758      -1.23303812
C       -0.62555148      -2.43959460      -0.21986372
C        0.38273375      -2.86584390       0.82411910
C       -1.20990310      -1.15060645      -2.23148764
C       -0.91703081       0.02379132      -3.14103242
H        3.26357066      -1.73307340      -1.94835721
H        2.57811340      -1.45148208      -0.34598578
H        2.43718750      -0.21284099      -1.61079353
H        1.15099934      -2.99331855      -1.80194063
H        1.01843950      -1.71091484      -2.97366119
H       -0.94888877      -3.28816959      -0.82417535
H       -1.51010743      -1.99201849       0.23245793
H        0.73353351      -2.02201690       1.41825682
H        1.24288542      -3.38390237       0.39602068
H       -0.11514307      -3.56966522       1.49449258
H       -1.32299481      -2.07713343      -2.78726916
H       -2.11644088      -0.97853808      -1.65619475
H       -0.84612987       0.95534825      -2.58166027
H       -0.01517214      -0.10738147      -3.73893114
H       -1.75092876       0.11898887      -3.83710232
47
Properties=species:S:1:pos:R:3 charge=1 spin=1 pbc="F F F"
C        2.82082493       1.09018771       2.93869539
N        2.14128373       1.33518916       1.68122793
C        2.91747120       2.08803226       0.71655248
C        0.86708064       0.96295187       1.49779844
C        0.05324708       1.14632796       0.43050341
C       -1.41302579       1.25492289       0.62833825
C       -2.07787688       2.32199972       0.00724022
C       -3.42012203       2.57200176       0.25091439
C       -4.13459113       1.76533269       1.12739896
C       -3.48743418       0.71415510       1.76718903
C       -2.14404505       0.46123657       1.51848267
H        3.72030983       0.49082569       2.78245032
H        3.12709607       2.03078216       3.40840543
H        2.16977309       0.56085643       3.63200587
H        2.28890921       2.47599879      -0.08272242
H        3.70747567       1.46781454       0.27962002
H        3.39815229       2.93909798       1.21165015
H        0.41292295       0.54155435       2.38734756
H        0.44092465       1.71210293      -0.41222002
H        0.05043824      -0.60287187      -0.76727797
H       -1.52685934       2.99243646      -0.64577486
H       -3.90755953       3.40797130      -0.23996067
H       -5.18271164       1.95505492       1.31967325
H       -4.03124407       0.07936830       2.46056518
H       -1.65869058      -0.35715832       2.04679602
C        2.42564336      -1.27705989      -1.40809653
C        1.14755524      -1.90687011      -1.91656407
N       -0.12005002      -1.44430715      -1.23318273
C       -0.62696692      -2.44863716      -0.22991524
C        0.37740210      -2.87422704       0.81798633
C       -1.20898834      -1.14286583      -2.23012373
C       -0.91272091       0.03252701      -3.13706457
H        3.26433772      -1.72425305      -1.94611562
H        2.57663843      -1.44831602      -0.34385653
H        2.43500482      -0.20635999      -1.60518762
H        1.15504454      -2.98840551      -1.80579301
H        1.01989118      -1.70298399      -2.97362295
H       -0.94150779      -3.29508662      -0.84050126
H       -1.51639767      -2.00866736       0.21907978
H        0.71917249      -2.03153456       1.41780742
H        1.24292833      -3.38462124       0.39298218
H       -0.11948585      -3.58398154       1.48205639
H       -1.32611067      -2.06703435      -2.78864421
H       -2.11442424      -0.96901294      -1.65369874
H       -0.83660583       0.96218915      -2.57574345
H       -0.01303280      -0.10087422      -3.73751357
H       -1.74767971       0.13290007      -3.83084039
47
Properties=species:S:1:pos:R:3 charge=1 spin=1 pbc="F F F"
C        2.82092792       1.09026793       2.94014684
N        2.14103084       1.33522896       1.68287002
C        2.91696643       2.08785624       0.71781956
C        0.86706726       0.96216592       1.49949683
C        0.05358810       1.14427527       0.43171782
C       -1.41274154       1.25337423       0.62899383
C       -2.07691206       2.32129477       0.00860245
C       -3.41917141       2.57152531       0.25193708
C       -4.13423088       1.76433579       1.12747771
C       -3.48774308       0.71228053       1.76647257
C       -2.14437940       0.45897478       1.51791201
H        3.72006218       0.49040374       2.78379500
H        3.12780312       2.03086268       3.40943341
H        2.16985366       0.56147019       3.63383804
H        2.28799272       2.47658434      -0.08077191
H        3.70626382       1.46736552       0.28000417
H        3.39854137       2.93840564       1.21290071
H        0.41277294       0.54142470       2.38928953
H        0.44172920       1.70891243      -0.41151002
H        0.04832692      -0.60999556      -0.75663929
H       -1.52538171       2.99212736      -0.64356401
H       -3.90615761       3.40807208      -0.23839345
H       -5.18234140       1.95429654       1.31957569
H       -4.03206752       0.07704496       2.45902306
H       -1.65951924      -0.36033853       2.04526439
C        2.42511408      -1.27106141      -1.40563415
C        1.14879975      -1.90176511      -1.91713186
N       -0.12052293      -1.44469672      -1.23332735
C       -0.62838236      -2.45767971      -0.23996676
C        0.37207046      -2.88261019       0.81185356
C       -1.20807358      -1.13512521      -2.22875981
C       -0.90841101       0.04126271      -3.13309672
H        3.26510478      -1.71543269      -1.94387403
H        2.57516346      -1.44514995      -0.34172729
H        2.43282215      -0.19987898      -1.59958171
H        1.15908974      -2.98349247      -1.80964539
H        1.02134285      -1.69505314      -2.97358471
H       -0.93412681      -3.30200365      -0.85682718
H       -1.52268790      -2.02531624       0.20570162
H        0.70481146      -2.04105222       1.41735803
H        1.24297123      -3.38534010       0.38994369
H       -0.12382863      -3.59829786       1.46962021
H       -1.32922653      -2.05693528      -2.79001926
H       -2.11240759      -0.95948780      -1.65120273
H       -0.82708180       0.96903004      -2.56982662
H       -0.01089345      -0.09436697      -3.73609599
H       -1.74443066       0.14681126      -3.82457845
47
Properties=species:S:1:pos:R:3 charge=1 spin=1 pbc="F F F"
C        2.82103091       1.09034816       2.94159829
N        2.14077795       1.33526876       1.68451211
C        2.91646167       2.08768023       0.71908663
C        0.86705388       0.96137998       1.50119521
C        0.05392911       1.14222259       0.43293223
C       -1.41245728       1.25182557       0.62964941
C       -2.07594724       2.32058982       0.00996467
C       -3.41822080       2.57104886       0.25295977
C       -4.13387063       1.76333888       1.12755646
C       -3.48805198       0.71040596       1.76575610
C       -2.14471375       0.45671299       1.51734136
H        3.71981452       0.48998179       2.78513968
H        3.12851018       2.03094320       3.41046139
H        2.16993423       0.56208396       3.63567022
H        2.28707623       2.47716990      -0.07882140
H        3.70505197       1.46691650       0.28038832
H        3.39893044       2.93771330       1.21415128
H        0.41262293       0.54129506       2.39123150
H        0.44253375       1.70572193      -0.41080003
H        0.04621559      -0.61711926      -0.74600062
H       -1.52390407       2.99181826      -0.64135316
H       -3.90475570       3.40817286      -0.23682624
H       -5.18197116       1.95353817       1.31947814
H       -4.03289097       0.07472163       2.45748095
H       -1.66034789      -0.36351873       2.04373275
C        2.42458480      -1.26506293      -1.40317177
C        1.15004426      -1.89666010      -1.91769965
N       -0.12099584      -1.44508629      -1.23347196
C       -0.62979780      -2.46672227      -0.25001828
C        0.36673881      -2.89099333       0.80572079
C       -1.20715882      -1.12738459      -2.22739589
C       -0.90410111       0.04999840      -3.12912887
H        3.26587184      -1.70661234      -1.94163244
H        2.57368850      -1.44198389      -0.33959804
H        2.43063948      -0.19339797      -1.59397580
H        1.16313493      -2.97857943      -1.81349777
H        1.02279452      -1.68712229      -2.97354647
H       -0.92674583      -3.30892069      -0.87315310
H       -1.52897814      -2.04196512       0.19232346
H        0.69045044      -2.05056987       1.41690864
H        1.24301414      -3.38605896       0.38690519
H       -0.12817140      -3.61261419       1.45718402
H       -1.33234239      -2.04683620      -2.79139431
H       -2.11039095      -0.94996266      -1.64870672
H       -0.81755777       0.97587094      -2.56390980
H       -0.00875410      -0.08785972      -3.73467842
H       -1.74118161       0.16072246      -3.81831651
47
Properties=species:S:1:pos:R:3 charge=1 spin=1 pbc="F F F"
C        2.82113390       1.09042839       2.94304974
N        2.14052507       1.33530856       1.68615420
C        2.91595690       2.08750421       0.72035371
C        0.86704049       0.96059403       1.50289359
C        0.05427013       1.14016990       0.43414664
C       -1.41217303       1.25027691       0.63030499
C       -2.07498242       2.31988486       0.01132690
C       -3.41727019       2.57057241       0.25398246
C       -4.13351038       1.76234198       1.12763520
C       -3.48836087       0.70853140       1.76503964
C       -2.14504810       0.45445119       1.51677070
H        3.71956686       0.48955984       2.78648437
H        3.12921723       2.03102373       3.41148937
H        2.17001480       0.56269772       3.63750239
H        2.28615975       2.47775545      -0.07687089
H        3.70384012       1.46646749       0.28077247
H        3.39931952       2.93702097       1.21540184
H        0.41247292       0.54116541       2.39317347
H        0.44333831       1.70253143      -0.41009003
H        0.04410427      -0.62424295      -0.73536195
H       -1.52242644       2.99150916      -0.63914231
H       -3.90335378       3.40827364      -0.23525902
H       -5.18160092       1.95277980       1.31938058
H       -4.03371441       0.07239829       2.45593883
H       -1.66117654      -0.36669893       2.04220111
C        2.42405552      -1.25906445      -1.40070939
C        1.15128877      -1.89155510      -1.91826743
N       -0.12146875      -1.44547586      -1.23361658
C       -0.63121324      -2.47576483      -0.26006980
C        0.36140717      -2.89937648       0.79958802
C       -1.20624406      -1.11964397      -2.22603198
C       -0.89979121       0.05873409      -3.12516102
H        3.26663890      -1.69779198      -1.93939085
H        2.57221353      -1.43881782      -0.33746880
H        2.42845680      -0.18691697      -1.58836989
H        1.16718013      -2.97366639      -1.81735015
H        1.02424619      -1.67919145      -2.97350823
H       -0.91936484      -3.31583772      -0.88947902
H       -1.53526837      -2.05861399       0.17894530
H        0.67608942      -2.06008753       1.41645925
H        1.24305704      -3.38677783       0.38386669
H       -0.13251418      -3.62693051       1.44474784
H       -1.33545825      -2.03673713      -2.79276936
H       -2.10837430      -0.94043752      -1.64621070
H       -0.80803373       0.98271183      -2.55799297
H       -0.00661475      -0.08135247      -3.73326085
H       -1.73793256       0.17463366      -3.81205457
47
Properties=species:S:1:pos:R:3 charge=1 spin=1 pbc="F F F"
C        2.82123689       1.09050862       2.94450119
N        2.14027218       1.33534836       1.68779628
C        2.91545213       2.08732819       0.72162079
C        0.86702711       0.95980809       1.50459197
C        0.05461115       1.13811721       0.43536105
C       -1.41188878       1.24872826       0.63096057
C       -2.07401760       2.31917991       0.01268912
C       -3.41631958       2.57009596       0.25500514
C       -4.13315012       1.76134508       1.12771395
C       -3.48866977       0.70665683       1.76432317
C       -2.14538246       0.45218940       1.51620004
H        3.71931920       0.48913789       2.78782905
H        3.12992429       2.03110425       3.41251735
H        2.17009538       0.56331149       3.63933457
H        2.28524326       2.47834100      -0.07492037
H        3.70262828       1.46601847       0.28115661
H        3.39970860       2.93632863       1.21665240
H        0.41232291       0.54103576       2.39511543
H        0.44414286       1.69934094      -0.40938004
H        0.04199295      -0.63136664      -0.72472328
H       -1.52094880       2.99120006      -0.63693146
H       -3.90195187       3.40837443      -0.23369181
H       -5.18123068       1.95202143       1.31928302
H       -4.03453786       0.07007496       2.45439672
H       -1.66200519      -0.36987913       2.04066947
C        2.42352625      -1.25306597      -1.39824700
C        1.15253329      -1.88645010      -1.91883522
N       -0.12194167      -1.44586542      -1.23376119
C       -0.63262868      -2.48480739      -0.27012133
C        0.35607552      -2.90775962       0.79345525
C       -1.20532930      -1.11190336      -2.22466806
C       -0.89548131       0.06746978      -3.12119317
H        3.26740596      -1.68897163      -1.93714926
H        2.57073856      -1.43565176      -0.33533955
H        2.42627413      -0.18043596      -1.58276399
H        1.17122533      -2.96875335      -1.82120252
H        1.02569787      -1.67126060      -2.97346999
H       -0.91198386      -3.32275475      -0.90580493
H       -1.54155861      -2.07526287       0.16556715
H        0.66172840      -2.06960519       1.41600985
H        1.24309995      -3.38749669       0.38082819
H       -0.13685696      -3.64124683       1.43231165
H       -1.33857411      -2.02663806      -2.79414442
H       -2.10635766      -0.93091238      -1.64371469
H       -0.79850970       0.98955273      -2.55207615
H       -0.00447541      -0.07484521      -3.73184328
H       -1.73468351       0.18854486      -3.80579264
47
Properties=species:S:1:pos:R:3 charge=1 spin=1 pbc="F F F"
C        2.82133988       1.09058884       2.94595264
N        2.14001930       1.33538816       1.68943837
C        2.91494737       2.08715218       0.72288786
C        0.86701372       0.95902214       1.50629036
C        0.05495216       1.13606453       0.43657546
C       -1.41160452       1.24717960       0.63161615
C       -2.07305278       2.31847495       0.01405135
C       -3.41536897       2.56961951       0.25602783
C       -4.13278987       1.76034817       1.12779269
C       -3.48897867       0.70478226       1.76360671
C       -2.14571681       0.44992761       1.51562939
H        3.71907155       0.48871594       2.78917374
H        3.13063134       2.03118477       3.41354533
H        2.17017595       0.56392525       3.64116674
H        2.28432678       2.47892656      -0.07296986
H        3.70141643       1.46556946       0.28154076
H        3.40009767       2.93563629       1.21790296
H        0.41217290       0.54090611       2.39705740
H        0.44494742       1.69615044      -0.40867004
H        0.03988162      -0.63849034      -0.71408461
H       -1.51947117       2.99089096      -0.63472061
H       -3.90054995       3.40847521      -0.23212459
H       -5.18086044       1.95126305       1.31918546
H       -4.03536130       0.06775162       2.45285460
H       -1.66283385      -0.37305934       2.03913784
C        2.42299697      -1.24706749      -1.39578462
C        1.15377780      -1.88134509      -1.91940301
N       -0.12241458      -1.44625499      -1.23390581
C       -0.63404412      -2.49384994      -0.28017285
C        0.35074388      -2.91614277       0.78732248
C       -1.20441454      -1.10416274      -2.22330415
C       -0.89117141       0.07620548      -3.11722532
H        3.26817302      -1.68015127      -1.93490767
H        2.56926360      -1.43248569      -0.33321031
H        2.42409145      -0.17395496      -1.57715808
H        1.17527052      -2.96384031      -1.82505490
H        1.02714954      -1.66332975      -2.97343175
H       -0.90460288      -3.32967179      -0.92213085
H       -1.54784884      -2.09191174       0.15218899
H        0.64736738      -2.07912284       1.41556046
H        1.24314285      -3.38821556       0.37778970
H       -0.14119974      -3.65556316       1.41987547
H       -1.34168997      -2.01653898      -2.79551947
H       -2.10434101      -0.92138724      -1.64121868
H       -0.78898566       0.99639362      -2.54615932
H       -0.00233606      -0.06833796      -3.73042571
H       -1.73143446       0.20245605      -3.79953070
47
Properties=species:S:1:pos:R:3 charge=1 spin=1 pbc="F F F"
C        2.82144287       1.09066907       2.94740409
N        2.13976641       1.33542796       1.69108046
C        2.91444260       2.08697616       0.72415494
C        0.86700034       0.95823620       1.50798874
C        0.05529318       1.13401184       0.43778987
C       -1.41132027       1.24563094       0.63227173
C       -2.07208796       2.31777000       0.01541357
C       -3.41441836       2.56914306       0.25705052
C       -4.13242962       1.75935127       1.12787144
C       -3.48928757       0.70290769       1.76289024
C       -2.14605116       0.44766582       1.51505873
H        3.71882389       0.48829399       2.79051842
H        3.13133840       2.03126529       3.41457331
H        2.17025652       0.56453902       3.64299892
H        2.28341029       2.47951211      -0.07101935
H        3.70020458       1.46512044       0.28192491
H        3.40048675       2.93494395       1.21915352
H        0.41202289       0.54077646       2.39899937
H        0.44575197       1.69295994      -0.40796005
H        0.03777030      -0.64561403      -0.70344594
H       -1.51799353       2.99058186      -0.63250976
H       -3.89914804       3.40857599      -0.23055738
H       -5.18049020       1.95050468       1.31908790
H       -4.03618475       0.06542829       2.45131249
H       -1.66366250      -0.37623954       2.03760620
C        2.42246769      -1.24106901      -1.39332224
C        1.15502231      -1.87624009      -1.91997080
N       -0.12288749      -1.44664456      -1.23405042
C       -0.63545956      -2.50289250      -0.29022437
C        0.34541223      -2.92452591       0.78118971
C       -1.20349978      -1.09642212      -2.22194023
C       -0.88686151       0.08494117      -3.11325747
H        3.26894008      -1.67133092      -1.93266608
H        2.56778863      -1.42931963      -0.33108106
H        2.42190878      -0.16747395      -1.57155217
H        1.17931572      -2.95892727      -1.82890728
H        1.02860121      -1.65539890      -2.97339351
H       -0.89722190      -3.33658882      -0.93845677
H       -1.55413908      -2.10856062       0.13881083
H        0.63300636      -2.08864050       1.41511107
H        1.24318576      -3.38893442       0.37475120
H       -0.14554252      -3.66987948       1.40743928
H       -1.34480583      -2.00643991      -2.79689452
H       -2.10232437      -0.91186210      -1.63872267
H       -0.77946163       1.00323452      -2.54024250
H       -0.00019671      -0.06183071      -3.72900814
H       -1.72818541       0.21636725      -3.79326876
