47
Converted from ColabReaction_Et3N_product.gjf
C 3.453592 -0.530813 1.711743
N 2.713284 -0.207547 0.485032
C 3.486017 0.534027 -0.515498
C 1.364912 -0.555958 0.341841
C 0.551551 -0.442836 -0.742247
C -0.924327 -0.264477 -0.472286
C -1.636893 0.715887 -1.178073
C -3.005623 0.897547 -0.970801
C -3.688043 0.106627 -0.046620
C -2.989840 -0.869166 0.667608
C -1.624186 -1.057028 0.452667
H 4.325408 -1.147110 1.468890
H 3.797247 0.391802 2.190231
H 2.811090 -1.076863 2.403752
H 2.828446 0.964646 -1.268806
H 4.215161 -0.123298 -0.998842
H 4.023539 1.343550 -0.012982
H 0.944840 -1.015577 1.234111
H 0.917723 0.230555 -1.520079
H 0.416388 -2.212467 -1.921251
H -1.114593 1.355605 -1.885747
H -3.534087 1.666287 -1.527245
H -4.751374 0.250026 0.119075
H -3.508729 -1.489256 1.393091
H -1.107377 -1.829434 1.019208
C 2.889699 -2.968951 -2.624766
C 1.598764 -3.565820 -3.177941
N 0.350414 -3.076225 -2.496724
C -0.216164 -4.119670 -1.581013
C 0.721566 -4.579133 -0.467566
C -0.708087 -2.702634 -3.494901
C -0.364280 -1.512565 -4.386262
H 3.745575 -3.414846 -3.141950
H 3.008651 -3.160617 -1.553966
H 2.925717 -1.888386 -2.795003
H 1.621509 -4.658978 -3.109025
H 1.523438 -3.327006 -4.240033
H -0.517091 -4.981411 -2.193321
H -1.124938 -3.693322 -1.149030
H 1.040772 -3.750542 0.172440
H 1.614765 -5.082634 -0.848353
H 0.189381 -5.298003 0.163432
H -0.920368 -3.588752 -4.109391
H -1.611089 -2.476927 -2.922066
H -0.219573 -0.597348 -3.806552
H 0.523353 -1.678257 -5.004330
H -1.202571 -1.338333 -5.068140