47
Converted from ColabReaction_Et3N_reactant.gjf
C 2.991237 -0.262617 2.090433
N 2.433097 -0.107644 0.731384
C 3.360187 0.514827 -0.231218
C 1.225911 -0.495920 0.454427
C 0.488118 -0.408076 -0.823797
C -0.943516 0.042698 -0.543849
C -1.274620 1.401609 -0.613735
C -2.577559 1.823447 -0.344912
C -3.554895 0.892069 0.009520
C -3.228499 -0.463577 0.089171
C -1.928073 -0.887268 -0.186420
H 3.874838 -0.904540 2.043179
H 3.280981 0.721356 2.468983
H 2.245992 -0.705814 2.750895
H 2.930733 0.538240 -1.228678
H 4.282788 -0.070929 -0.249556
H 3.587689 1.530375 0.104920
H 0.688665 -0.946034 1.287701
H 0.973750 0.257548 -1.540916
H 0.494865 -1.427333 -1.289492
H -0.518810 2.132394 -0.893068
H -2.827396 2.878061 -0.412748
H -4.568450 1.220369 0.219175
H -3.987817 -1.192321 0.357053
H -1.682833 -1.945709 -0.136123
C 2.783967 -2.559044 -2.998519
C 1.642522 -3.532377 -3.297555
N 0.428254 -3.300540 -2.470999
C 0.229823 -4.377696 -1.480298
C 1.336619 -4.474866 -0.430621
C -0.783919 -3.157831 -3.310050
C -0.816957 -1.871818 -4.134380
H 3.655784 -2.787888 -3.621892
H 3.096684 -2.619004 -1.949510
H 2.479749 -1.527670 -3.212743
H 1.992659 -4.565343 -3.163491
H 1.377354 -3.446612 -4.356217
H 0.122112 -5.356567 -1.981981
H -0.723591 -4.185426 -0.973585
H 1.450289 -3.532149 0.119908
H 2.306559 -4.727290 -0.870282
H 1.092343 -5.259194 0.293423
H -0.898652 -4.031209 -3.976373
H -1.649100 -3.164779 -2.637765
H -0.815437 -0.986639 -3.489207
H 0.028800 -1.794989 -4.825935
H -1.731418 -1.844524 -4.736178